##TITLE=	(1) taxol  1H of taxol(2) at 303K
 (CDCl3)

(2) Taxol-new.mol #1
##JCAMP-DX=	6.0	$$ MestReNova BETA 14.3.0-27283
##DATA TYPE=	LINK
##BLOCK_ID=	1
##BLOCKS=	2    
##ORIGIN=	Mestrelab Research S.L.
##OWNER=	jeannerat
##$MNOVA/LINK_BLOCK_TYPE=	PAGE
##TITLE=	Taxol-new.mol #1
##JCAMP-DX=	6.0	$$ MestReNova BETA 14.3.0-27283
##DATA TYPE=	LINK
##BLOCK_ID=	2
##BLOCKS=	3    
##ORIGIN=	Mestrelab Research S.L.
##OWNER=	jeannerat
##$MNOVA/LINK_BLOCK_TYPE=	ITEM	$$ Molecule
##$MNOVA/ITEM/POLYGON=	(XY..XY)
5487,5859
7464.72,5859
7464.72,7531.02
5487,7531.02
5487,5859
##$MNOVA/ITEM/Z=	1
##$MNOVA/ITEM/ANGLE=	0
##TITLE=	Taxol-new.cdx
##JCAMP-CS=	3.7	$$ MestReNova BETA 14.3.0-27283
##ORIGIN=	Mestrelab Research S.L.
##OWNER=	jeannerat
##BLOCK_ID=	3
##NAMES=	Taxol-new.cdx
##ATOMLIST=	
$$ AN	AS	NH
	1	C	2
	2	C	 
	3	C	 
	4	C	 
	5	C	 
	6	C	1
	7	C	1
	8	C	 
	9	C	 
	10	C	 
	11	C	 
	12	O	1
	13	C	3
	14	C	3
	15	O	 
	16	O	 
	17	C	 
	18	C	 
	19	C	 
	20	C	 
	21	C	3
	22	O	1
	23	O	 
	24	C	2
	25	O	 
	26	H	 
	27	O	 
	28	C	 
	29	C	 
	30	C	1
	31	C	1
	32	C	1
	33	C	1
	34	C	1
	35	O	 
	36	O	 
	37	C	 
	38	C	1
	39	O	 
	40	C	1
	41	N	1
	42	C	 
	43	C	1
	44	C	1
	45	C	1
	46	C	1
	47	C	1
	48	C	 
	49	C	 
	50	O	 
	51	C	1
	52	C	1
	53	C	1
	54	C	1
	55	C	1
	56	O	1
	57	C	3
	58	C	 
	59	C	3
	60	O	 
	61	C	 
	62	C	3
	63	O	 
	64	H	 
	65	H	 
	66	H	 
	67	H	 
	68	H	 
##BONDLIST=	
$$ AN1	AN2	BT
	1	2	S
	2	3	S
	3	4	S
	4	5	D
	5	6	S
	6	1	S
	7	8	S
	8	9	S
	9	10	S
	10	11	S
	2	7	S
	4	11	S
	2	12	S
	3	13	S
	3	14	S
	11	15	S
	10	16	D
	8	17	S
	17	18	S
	18	19	S
	19	20	S
	20	9	S
	9	21	S
	20	22	S
	18	23	S
	17	24	S
	24	23	S
	17	25	S
	8	26	S
	7	27	S
	27	28	S
	28	29	S
	29	30	D
	30	31	S
	31	32	D
	32	33	S
	33	34	D
	34	29	S
	28	35	D
	6	36	S
	36	37	S
	37	38	S
	37	39	D
	38	40	S
	40	41	S
	40	42	S
	42	43	D
	43	44	S
	44	45	D
	45	46	S
	46	47	D
	47	42	S
	41	48	S
	48	49	S
	48	50	D
	49	51	D
	51	52	S
	52	53	D
	53	54	S
	54	55	D
	55	49	S
	38	56	S
	5	57	S
	15	58	S
	58	59	S
	58	60	D
	25	61	S
	61	62	S
	61	63	D
	11	64	S
	20	65	S
	19	66	S
	19	67	S
	18	68	S
##MAXRASTER=	32768
##XY_RASTER=	
$$ AN	X	Y	Z
	1	16817	16575	0
	2	19293	16302	0
	3	20295	14022	0
	4	18821	12014	0
	5	16345	12286	0
	6	15343	14567	0
	7	23006	16458	0
	8	25663	14412	0
	9	25374	11624	0
	10	23431	10066	0
	11	20955	10338	0
	12	18648	18708	0
	13	21812	12122	0
	14	21909	13651	0
	15	19999	8038	0
	16	24111	7670	0
	17	28228	15539	0
	18	30487	13881	0
	19	30181	11096	0
	20	27605	9954	0
	21	25374	9133	0
	22	28250	7548	0
	23	32767	14883	0
	24	30501	16557	0
	25	27233	17822	0
	26	25971	16883	0
	27	23774	18827	0
	28	22106	20677	0
	29	22751	23083	0
	30	25157	23728	0
	31	25802	26134	0
	32	24040	27895	0
	33	21634	27251	0
	34	20990	24845	0
	35	19670	20158	0
	36	12869	14854	0
	37	11382	12856	0
	38	8908	13143	0
	39	12370	10569	0
	40	7422	11145	0
	41	8410	8858	0
	42	4948	11433	0
	43	3461	9434	0
	44	987	9722	0
	45	0	12008	0
	46	1486	14007	0
	47	3960	13719	0
	48	6923	6859	0
	49	7911	4573	0
	50	4449	7147	0
	51	6425	2574	0
	52	7413	287	0
	53	9887	0	0
	54	11373	1998	0
	55	10385	4285	0
	56	7921	15430	0
	57	14859	10287	0
	58	17846	6971	0
	59	15123	7071	0
	60	18491	4565	0
	61	28713	19826	0
	62	27718	22109	0
	63	31188	19546	0
	64	21537	8266	0
	65	29353	9023	0
	66	31494	10135	0
	67	31178	8438	0
	68	32228	12587	0
##STEREOCENTER=	
$$ AN	SD
	2	P
	3	P
	3	P
	6	M
	7	M
	8	P
	9	M
	11	P
	11	P
	17	P
	18	P
	18	P
	19	M
	19	M
	20	P
	20	P
	38	M
	40	P
##END=	
##TITLE=	taxol
##JCAMP-DX=	6.0	$$ MestReNova BETA 14.3.0-27283
##BLOCK_ID=	4
##DATA TYPE=	NMR PEAK ASSIGNMENTS
##DATA CLASS=	ASSIGNMENTS
##CROSS REFERENCE=	STRUCTURE: BLOCK_ID=3                                     
NMR SPECTRUM: BLOCK_ID=7                                     
##.OBSERVE FREQUENCY=	300.131378173828125
##.OBSERVE NUCLEUS=	^1H
##NPOINTS=	47
##XUNITS=	PPM
##YUNITS=	ARBITRARY UNITS
##PEAKASSIGNMENTS=	(XYWA)
(2.3276593862995769157, 154.00390625, 0, <1>)
(2.3276593862995769157, 154.00390625, 0, <1>)
(6.2407833260397360675, 111.1691436767578125, 0.048399708240326688724, <6>)
(5.682908545364625752, 45.588825225830078125, 0.044999432902540714707, <7>)
(1.7373487810803625031, 435.8948974609375, 0, <12>)
(1.2496680511928881518, 997.853271484375, 0.020361777478032916378, <13>)
(1.2496680511928881518, 997.853271484375, 0.020361777478032916378, <13>)
(1.2496680511928881518, 997.853271484375, 0.020361777478032916378, <13>)
(1.1531268857699095154, 688.958740234375, 0.05146486548792195137, <14>)
(1.1531268857699095154, 688.958740234375, 0.05146486548792195137, <14>)
(1.1531268857699095154, 688.958740234375, 0.05146486548792195137, <14>)
(1.6950061402509819519, 1006.8994140625, 0.046330723606573642748, <21>)
(1.6950061402509819519, 1006.8994140625, 0.046330723606573642748, <21>)
(1.6950061402509819519, 1006.8994140625, 0.046330723606573642748, <21>)
(2.4533745517292731009, 99.067352294921875, 0.028505723580426245434, <22>)
(4.2066955559981948909, 27.549427032470703125, 0.047296479655327683389, <24>)
(4.3055380642249883039, 39.275363922119140625, 0.046041730263479241358, <24>)
(4.2066955559981948909, 27.549427032470703125, 0.047296479655327683389, <24>)
(4.3055380642249883039, 39.275363922119140625, 0.046041730263479241358, <24>)
(3.8111286214407300577, 47.514408111572265625, 0.061783353952697295242, <26>)
(8.1406859353173626204, 73.683319091796875, 0, <30>)
(7.5172064435926113646, 308.282196044921875, 0, <31>)
(7.5212044202499415135, 194.8495635986328125, 0, <33>)
(8.1406859353173626204, 73.683319091796875, 0, <34>)
(8.141646834328190252, 74.081390380859375, 0, <34>)
(4.7956371710897656158, 94.9407806396484375, 0.046583834469398066602, <38>)
(5.7978376865212339908, 34.66216278076171875, 0.045789811420547721355, <40>)
(7.0005047606100561097, 35.655155181884765625, 0.047904018799588499178, <41>)
(7.4934100897060043067, 226.6356201171875, 0, <43>)
(7.3909603858365890972, 127.274505615234375, 0, <44>)
(7.3896229669411992447, 100.9325408935546875, 0, <46>)
(7.4934100897060043067, 226.6356201171875, 0, <47>)
(7.7442293500103085435, 126.296539306640625, 0, <51>)
(7.7442293500103085435, 126.296539306640625, 0, <55>)
(3.5837581800970141899, 54.693492889404296875, 0.042059950084534225567, <56>)
(1.8027935924076623486, 807.41925048828125, 0.028135519378083229114, <57>)
(1.8027935924076623486, 807.41925048828125, 0.028135519378083229114, <57>)
(1.8027935924076623486, 807.41925048828125, 0.028135519378083229114, <57>)
(2.2401523101423679307, 1269.1820068359375, 0.025362531679746558311, <59>)
(2.2401523101423679307, 1269.1820068359375, 0.025362531679746558311, <59>)
(2.2401523101423679307, 1269.1820068359375, 0.025362531679746558311, <59>)
(2.3926353525829164859, 1235.832763671875, 0.035822834648250312384, <62>)
(2.3926353525829164859, 1235.832763671875, 0.035822834648250312384, <62>)
(2.3926353525829164859, 1235.832763671875, 0.035822834648250312384, <62>)
(6.2851700262031222621, 387.10687255859375, 0.021522883150209004555, <64>)
(4.4058738936728332192, 91.9552459716796875, 0.061812429283300218685, <65>)
(4.9487098101285393881, 30.069305419921875, 0.053143674256840522929, <68>)
##END=	
##TITLE=	taxol
##JCAMP-DX=	6.0	$$ MestReNova BETA 14.3.0-27283
##BLOCK_ID=	5
##DATA TYPE=	NMR PEAK ASSIGNMENTS
##DATA CLASS=	ASSIGNMENTS
##CROSS REFERENCE=	STRUCTURE: BLOCK_ID=3                                     
##.OBSERVE FREQUENCY=	75.47637176513671875
##.OBSERVE NUCLEUS=	^13C
##NPOINTS=	35
##XUNITS=	PPM
##YUNITS=	ARBITRARY UNITS
##PEAKASSIGNMENTS=	(XYWA)
(35.95762008086270356, 7167.3330078125, 0, <1>)
(79.332883921047908871, 11479.9052734375, 0, <2>)
(79.332883921047908871, 11479.9052734375, 0, <3>)
(133.45405435125309168, 12102.392578125, 0, <4>)
(142.18924139813009333, 12030.53125, 0, <5>)
(72.577233633056025042, 8178.298828125, 0, <6>)
(75.228265069456114134, 8605.1640625, 0, <7>)
(45.900973378091364907, 7745.9052734375, 0, <8>)
(58.883128966984699559, 14593.568359375, 0, <9>)
(203.81030569733431435, 13407.2509765625, 0, <10>)
(75.802409718107611525, 10778.1875, 0, <11>)
(27.108754595011713917, 11574.1845703125, 0, <13>)
(22.033656819001805616, 7085.337890625, 0, <14>)
(81.41796952977631463, 16000.689453125, 0, <17>)
(84.63817703212650656, 8330.92578125, 0, <18>)
(35.8709884771423404, 7876.728515625, 0, <19>)
(72.407129486466502044, 8994.2568359375, 0, <20>)
(9.7934237941018320583, 9993.3994140625, 0, <21>)
(76.756930656961301906, 27395.857421875, 0, <24>)
(167.24346957616930354, 14733.298828125, 0, <28>)
(133.91102934094800503, 17548.462890625, 0, <32>)
(172.90029495668227355, 12083.966796875, 0, <37>)
(73.474024835252308208, 9504.3466796875, 0, <38>)
(55.28745504462509075, 7851.2392578125, 0, <40>)
(138.24778706910714732, 14740.9765625, 0, <42>)
(167.21629578693676876, 10611.1259765625, 0, <48>)
(132.14600246710352849, 10295.4296875, 0, <49>)
(127.33861063212903275, 1661.071533203125, 0, <52>)
(132.23356122895484077, -420.1295166015625, 0, <53>)
(127.33861063212903275, 1661.071533203125, 0, <54>)
(15.038184738988251254, 13819.068359375, 0, <57>)
(171.40528741129861601, 11052.1181640625, 0, <58>)
(21.040116669167982622, 14545.662109375, 0, <59>)
(170.57235126004874814, 10177.50390625, 0, <61>)
(22.846255776169321905, 14312.267578125, 0, <62>)
##END=	
##END=	
##TITLE=	taxol  1H of taxol(2) at 303K
 (CDCl3)
##JCAMP-DX=	6.0	$$ MestReNova BETA 14.3.0-27283
##DATA TYPE=	LINK
##BLOCK_ID=	6
##BLOCKS=	2    
##ORIGIN=	Mestrelab Research S.L.
##OWNER=	jeannerat
##$MNOVA/LINK_BLOCK_TYPE=	ITEM	$$ NMR Spectrum
##$MNOVA/ITEM/POLYGON=	(XY..XY)
5426,5884
8605,5884
8605,8232.19
5426,8232.19
5426,5884
##$MNOVA/ITEM/Z=	0
##$MNOVA/ITEM/ANGLE=	0
##TITLE=	taxol
##JCAMP-DX=	6.0	$$ MestReNova BETA 14.3.0-27283
##BLOCK_ID=	7
##DATA TYPE=	NMR SPECTRUM
##DATA CLASS=	XYDATA
##NUMDIM=	1
##ORIGIN=	UXNMR, Bruker Analytische Messtechnik GmbH
##OWNER=	root
##.OBSERVE FREQUENCY=	300.131378173828125
##.OBSERVE NUCLEUS=	^1H
##.SOLVENT NAME=	CDCl3
##.PULSE SEQUENCE=	zg
##LONGDATE=	1995/08/01 00:39:15.000
##.ACQUISITIONMODE=	SIMULTANEOUS (DQD)
##$ORIGINAL FORMAT=	Bruker XWIN-NMR
##$MNOVA/SCALES_VERSION=	6
##$PARAMETER FILE=	(acqus, ASCII, c:/Mestrelab/Projects/Demo%20Data/2D/Taxol-1D-and-2D/H-1/acqus, 0)
$$ ##TITLE= Parameter file,  UXNMR		Version 941001.1
$$ ##JCAMPDX= 5.0
$$ ##DATATYPE= UXNMR Parameter Values
$$ ##ORIGIN= UXNMR, Bruker Analytische Messtechnik GmbH
$$ ##OWNER= root
$$ $$ Mon Jul 31 12:39:15 1995
$$ $$ File: /u/data/cpeng/nmr/taxol/1/acqus
$$ ##$AQ_mod= 1 
$$ ##$AUNM= <au_zg>
$$ ##$BF1= 300.13 
$$ ##$BF2= 300.13 
$$ ##$BF3= 300.13 
$$ ##$BF4= 300.13 
$$ ##$BF5= 300.13 
$$ ##$BF6= 300.13 
$$ ##$BF7= 300.13 
$$ ##$BF8= 300.13 
$$ ##$BYTORDA= 1 
$$ ##$CNST= (0..31)
$$ 1 1 145 1 1 1 1 1 1 1 1 1 1 1 1 1 1 1 1 1 1 1 1 1 1 1 1 1 1 1 1 1 
$$ ##$CPDPRG= <>
$$ ##$CPDPRG1= <>
$$ ##$CPDPRG2= <>
$$ ##$CPDPRG3= <>
$$ ##$CPDPRG4= <mlev>
$$ ##$CPDPRG5= <mlev>
$$ ##$CPDPRG6= <mlev>
$$ ##$CPDPRG7= <mlev>
$$ ##$CPDPRG8= <mlev>
$$ ##$CPDPRGB= <>
$$ ##$CPDPRGT= <>
$$ ##$D= (0..31)
$$ 0 2 0 0 0 0 0 0 0 0 0 0 0 0 0 0 0 0 0 0 0 0 0 0 0 0 0 0 0 0 0 0 
$$ ##$DATE= 807208755 
$$ ##$DBL= (0..7)
$$ 120 120 120 120 120 120 120 120 
$$ ##$DBP= (0..7)
$$ 150 150 150 150 150 150 150 150 
$$ ##$DBP07= 0 
$$ ##$DBPNAM0= <>
$$ ##$DBPNAM1= <>
$$ ##$DBPNAM2= <>
$$ ##$DBPNAM3= <>
$$ ##$DBPNAM4= <>
$$ ##$DBPNAM5= <>
$$ ##$DBPNAM6= <>
$$ ##$DBPNAM7= <>
$$ ##$DBPOFFS= (0..7)
$$ 0 0 0 0 0 0 0 0 
$$ ##$DE= 4.5 
$$ ##$DECBNUC= <off>
$$ ##$DECIM= 48 
$$ ##$DECNUC= <off>
$$ ##$DECSTAT= 4 
$$ ##$DIGMOD= 1 
$$ ##$DIGTYP= 7 
$$ ##$DL= (0..7)
$$ 0 120 120 120 120 120 120 120 
$$ ##$DP= (0..7)
$$ 150 150 150 150 150 150 150 150 
$$ ##$DP07= 0 
$$ ##$DPNAME0= <>
$$ ##$DPNAME1= <>
$$ ##$DPNAME2= <>
$$ ##$DPNAME3= <>
$$ ##$DPNAME4= <>
$$ ##$DPNAME5= <>
$$ ##$DPNAME6= <>
$$ ##$DPNAME7= <>
$$ ##$DPOFFS= (0..7)
$$ 0 0 0 0 0 0 0 0 
$$ ##$DR= 18 
$$ ##$DS= 0 
$$ ##$DSLIST= <SSSSSSSSSSSSSSS>
$$ ##$DSPFIRM= 0 
$$ ##$DSPFVS= 10 
$$ ##$DTYPA= 0 
$$ ##$EXP= <>
$$ ##$F1LIST= <freqlist>
$$ ##$F2LIST= <222222222222222>
$$ ##$F3LIST= <333333333333333>
$$ ##$FCUCHAN= (0..9)
$$ 0 2 0 0 0 0 0 0 0 0 
$$ ##$FL1= 90 
$$ ##$FL2= 90 
$$ ##$FL3= 90 
$$ ##$FL4= 90 
$$ ##$FOV= 20 
$$ ##$FQ1LIST= <freqlist>
$$ ##$FQ2LIST= <freqlist>
$$ ##$FQ3LIST= <freqlist>
$$ ##$FQ4LIST= <freqlist>
$$ ##$FQ5LIST= <freqlist>
$$ ##$FQ6LIST= <freqlist>
$$ ##$FQ7LIST= <freqlist>
$$ ##$FQ8LIST= <freqlist>
$$ ##$FS= (0..7)
$$ 83 83 83 83 83 83 83 83 
$$ ##$FTLPGN= 0 
$$ ##$FW= 90000 
$$ ##$GRDPROG= <>
$$ ##$HGAIN= (0..3)
$$ 0 0 0 0 
$$ ##$HL1= 1 
$$ ##$HL2= 35 
$$ ##$HL3= 16 
$$ ##$HL4= 17 
$$ ##$HOLDER= 0 
$$ ##$HPMOD= (0..7)
$$ 1 0 0 0 0 0 0 0 
$$ ##$HPPRGN= 0 
$$ ##$IN= (0..31)
$$ 0.001 0.001 0.001 0.001 0.001 0.001 0.001 0.001 0.001 0.001 0.001 0.001 
$$ 0.001 0.001 0.001 0.001 0.001 0.001 0.001 0.001 0.001 0.001 0.001 0.001 
$$ 0.001 0.001 0.001 0.001 0.001 0.001 0.001 0.001 
$$ ##$INP= (0..31)
$$ 0 0 0 0 0 0 0 0 0 0 0 0 0 0 0 0 0 0 0 0 0 0 0 0 0 0 0 0 0 0 0 0 
$$ ##$INSTRUM= <spect>
$$ ##$L= (0..31)
$$ 1 1 1 1 1 1 1 1 1 1 1 1 1 1 1 1 1 1 1 1 1 1 1 1 1 1 1 1 1 1 1 1 
$$ ##$LFILTER= 10 
$$ ##$LGAIN= -10 
$$ ##$LOCKPOW= -26 
$$ ##$LOCNUC= <2H>
$$ ##$LOCSHFT= no 
$$ ##$LTIME= 2.80259692864963e-43 
$$ ##$NBL= 1 
$$ ##$NC= -2 
$$ ##$NS= 4 
$$ ##$NUC1= <1H>
$$ ##$NUC2= <off>
$$ ##$NUC3= <off>
$$ ##$NUC4= <off>
$$ ##$NUC5= <off>
$$ ##$NUC6= <off>
$$ ##$NUC7= <off>
$$ ##$NUC8= <off>
$$ ##$NUCLEI= 1 
$$ ##$NUCLEUS= <off>
$$ ##$O1= 1375.88219598683 
$$ ##$O2= 0 
$$ ##$O3= 0 
$$ ##$O4= 0 
$$ ##$O5= 0 
$$ ##$O6= 0 
$$ ##$O7= 0 
$$ ##$O8= 0 
$$ ##$P= (0..31)
$$ 0 6.7 0 0 0 0 0 0 0 0 0 0 0 0 0 0 0 0 0 0 26 0 0 0 0 0 0 0 0 0 0 0 
$$ ##$PAPS= 2 
$$ ##$PARMODE= 0 
$$ ##$PCPD= (0..7)
$$ 0 0 0 0 0 0 0 0 
$$ ##$PHCOR= (0..31)
$$ 0 -170.8 0 0 0 0 0 0 0 0 0 0 0 0 0 0 0 0 0 0 0 0 0 0 0 0 0 0 0 0 0 0 
$$ ##$PHP= 1 
$$ ##$PH_ref= 0 
$$ ##$PL= (0..31)
$$ 120 6 120 120 120 120 120 120 120 120 120 120 120 120 120 120 120 120 
$$ 120 120 120 120 120 120 120 120 120 120 120 120 120 120 
$$ ##$POWMOD= 0 
$$ ##$PR= 1 
$$ ##$PRECHAN= (0..15)
$$ 5 5 5 5 2 5 5 5 5 5 5 5 5 5 5 5 
$$ ##$PRGAIN= 0 
$$ ##$PROBHD= <  5 mm Multinuclear inverse>
$$ ##$PULPROG= <zg>
$$ ##$PW= 0 
$$ ##$QNP= 1 
$$ ##$QS= (0..7)83 83 83 83 83 83 83 22 
$$ ##$QSB= (0..7)83 83 83 83 83 83 83 83 
$$ ##$RD= 0 
$$ ##$RG= 256 
$$ ##$RO= 20 
$$ ##$ROUTWD1= (0..23)
$$ 0 0 0 0 0 0 0 0 0 0 0 0 0 0 0 0 0 0 0 0 1 1 0 0 
$$ ##$ROUTWD2= (0..23)
$$ 0 0 0 0 0 1 0 0 0 0 0 0 0 0 0 0 0 0 1 0 1 1 0 0 
$$ ##$RSEL= (0..9)
$$ 0 0 2 0 0 0 0 0 0 0 
$$ ##$S= (0..7)
$$ 83 4 83 83 83 83 83 83 
$$ ##$SEOUT= 0 
$$ ##$SFO1= 300.131375882196 
$$ ##$SFO2= 300.13 
$$ ##$SFO3= 300.13 
$$ ##$SFO4= 300.13 
$$ ##$SFO5= 300.13 
$$ ##$SFO6= 300.13 
$$ ##$SFO7= 300.13 
$$ ##$SFO8= 300.13 
$$ ##$SOLVENT= <Aceton>
$$ ##$SP= (0..15)
$$ 120 42 120 120 120 120 120 120 120 120 120 120 120 120 120 120 
$$ ##$SP07= 0 
$$ ##$SPNAM0= <gauss>
$$ ##$SPNAM1= <selgauss>
$$ ##$SPNAM10= <gauss>
$$ ##$SPNAM11= <gauss>
$$ ##$SPNAM12= <gauss>
$$ ##$SPNAM13= <gauss>
$$ ##$SPNAM14= <gauss>
$$ ##$SPNAM15= <gauss>
$$ ##$SPNAM2= <gauss>
$$ ##$SPNAM3= <gauss>
$$ ##$SPNAM4= <gauss>
$$ ##$SPNAM5= <gauss>
$$ ##$SPNAM6= <gauss>
$$ ##$SPNAM7= <gauss>
$$ ##$SPNAM8= <gauss>
$$ ##$SPNAM9= <gauss>
$$ ##$SPOFFS= (0..15)
$$ 0 0 0 0 0 0 0 0 0 0 0 0 0 0 0 0 
$$ ##$SW= 7.97862605429692 
$$ ##$SWIBOX= (0..15)
$$ 0 0 4 4 0 0 0 0 0 0 0 0 0 0 0 0 
$$ ##$SW_h= 2394.63601532567 
$$ ##$TD= 16384 
$$ ##$TE= 305 
$$ ##$TL= (0..7)
$$ 0 120 120 120 120 120 120 120 
$$ ##$TP= (0..7)
$$ 150 150 150 150 150 150 150 150 
$$ ##$TP07= 0 
$$ ##$TPNAME0= <>
$$ ##$TPNAME1= <>
$$ ##$TPNAME2= <>
$$ ##$TPNAME3= <>
$$ ##$TPNAME4= <>
$$ ##$TPNAME5= <>
$$ ##$TPNAME6= <>
$$ ##$TPNAME7= <>
$$ ##$TPOFFS= (0..7)
$$ 0 0 0 0 0 0 0 0 
$$ ##$TUNHIN= 0 
$$ ##$TUNHOUT= 0 
$$ ##$TUNXOUT= 0 
$$ ##$USERA1= <user>
$$ ##$USERA2= <user>
$$ ##$USERA3= <user>
$$ ##$USERA4= <user>
$$ ##$USERA5= <user>
$$ ##$V9= 5 
$$ ##$VCLIST= <CCCCCCCCCCCCCCC>
$$ ##$VD= 0 
$$ ##$VDLIST= <DDDDDDDDDDDDDDD>
$$ ##$VPLIST= <PPPPPPPPPPPPPPP>
$$ ##$VTLIST= <TTTTTTTTTTTTTTT>
$$ ##$WBST= 1024 
$$ ##$WBSW= 2 
$$ ##$WS= (0..7)83 83 83 83 83 83 83 83 
$$ ##$XGAIN= (0..3)
$$ 0 0 0 0 
$$ ##$XL= 0 
$$ ##$YL= 0 
$$ ##$YMAX_a= 0 
$$ ##$YMIN_a= 0 
$$ ##$ZL1= 120 
$$ ##$ZL2= 120 
$$ ##$ZL3= 120 
$$ ##$ZL4= 120 
$$ ##END=  
$$   
##$PARAMETER FILE=	(format.temp, ASCII, c:/Mestrelab/Projects/Demo%20Data/2D/Taxol-1D-and-2D/H-1/format.temp, 0)
$$ EDIT_PAR COMMAND FILE
$$ 
$$ DI_MODE         LONG
$$ ED_ENTRY        ACQU
$$ ORDER           FILE
$$ 
$$ 
$$ HEADER		"F2 - Acquisition Parameters"
$$ T_NAME		Date
$$ 		TYPE	R32
$$ 		CLASS	ACQU
$$ 		SUBRANGE 0.0 1000000
$$ 		REL	"Date=itodate(DATE)"
$$ 		INV_REL	"DATE=datetoi(Date,DATE)"
$$ 		FORMAT	"%14.0f"
$$ 		TEXT	" "
$$ END
$$ T_NAME		Time
$$ 		TYPE	R32
$$ 		CLASS	ACQU
$$ 		SUBRANGE 0.0 1000000
$$ 		REL	"Time=itotime(DATE)"
$$ 		INV_REL	"DATE=timetoi(Time,DATE)"
$$ 		FORMAT	"%14.2f"
$$ 		TEXT	" "
$$ END
$$ NAME		PULPROG
$$ 		TEXT	" "
$$ END
$$ NAME		SOLVENT
$$ 		TEXT	" "
$$ END
$$ T_NAME          AQ
$$ 		TYPE	R32
$$ 		CLASS	ACQU
$$ 		SUBRANGE 0.0 1000
$$ 		REL	"AQ=TD/(2*SW*SFO1)+2e-5;if(DIGTYP>2){AQ=(TD+2)/(2*SW*SFO1);if(SW*SFO1>125000){AQ=(TD+2)/(2*SW*SFO1)+4.0e-6*(TD-TD/((2*SW*SFO1)*(3/(2*SW*SFO1)+8e-6)));}}if(DIGTYP==2){AQ=8.0e-6+TD*(1.0e-5+0.5/(SW*SFO1));}"
$$ 		INV_REL	"TD=(AQ-2.0e-5)*2*SW*SFO1;if(DIGTYP>2){TD=AQ*2*SW*SFO1-2;if(SW*SFO1>125000){TD=(AQ-1/(SW*SFO1))/(1/(2*SW*SFO1)+4.0e-6-(2.0e-6/((SW*SFO1)*(3/(2*SW*SFO1)+8e-6))));}}if(DIGTYP==2){TD=(AQ-8.0e-6)*2.0*SW*SFO1/(1.0+2.0e-5*SW*SFO1);}"
$$ 		UNIT	"sec"
$$ 		FORMAT	"%14.7f sec"
$$                 TEXT	" "
$$ END
$$ T_NAME          FIDRES
$$                 TYPE    R32
$$                 CLASS   ACQU
$$                 SUBRANGE 0.0 100000
$$                 REL     "FIDRES=SW*SFO1/TD"
$$                 INV_REL "TD = nextpow(SW*SFO1/FIDRES)"
$$ 		UNIT	"Hz"
$$ 		FORMAT	"%14.6f Hz"
$$                 TEXT	" "
$$ END
$$ T_NAME          DW
$$ 		TYPE	R32
$$ 		CLASS	ACQU
$$ 		SUBRANGE 0.0 1000000
$$ 		REL	"DW=1000000/(2*SW*SFO1)"
$$ 		INV_REL	"SW=1000000/(2*DW*SFO1)"
$$ 		UNIT	"usec"
$$ 		FORMAT	"%14.1f usec"
$$ 		TEXT	" "
$$ END
$$ NAME		RG
$$ 		TEXT	" "
$$ END
$$ NAME		NUCLEUS
$$ 		TEXT	" "
$$ END
$$ T_NAME		D1
$$ 		TYPE	R32
$$ 		CLASS	ACQU
$$ 		SUBRANGE 0.0 1000000
$$ 		REL	"D1=D[1]"
$$ 		INV_REL	"D[1]=D1"
$$ 		UNIT	"sec"
$$ 		FORMAT	"%14.7f sec"
$$ 		TEXT	" "
$$ END
$$ T_NAME		P1
$$ 		TYPE	R32
$$ 		CLASS	ACQU
$$ 		SUBRANGE 0.0 1.0e10
$$ 		REL	"P1=P[1]"
$$ 		INV_REL	"P[1]=P1"
$$ 		UNIT	"usec"
$$ 		FORMAT	"%14.1f usec"
$$ 		TEXT	" "
$$ END
$$ NAME		DE
$$ 		FORMAT	"%14.1f usec"
$$ 		TEXT	" "
$$ END
$$ NAME		SFO1
$$ 		FORMAT	"%14.7f MHz"
$$ 		TEXT	" "
$$ END
$$ T_NAME		SWH
$$ 		TYPE	R32
$$ 		CLASS	ACQU
$$ 		SUBRANGE 0.0 1e7
$$ 		REL	"SWH=SW*SFO1"
$$ 		INV_REL "SW=SWH/SFO1"
$$ 		UNIT	"Hz"
$$ 		FORMAT	"%14.2f Hz"
$$ 		TEXT	" "
$$ END
$$ NAME		TD
$$ 		TEXT	" "
$$ END
$$ NAME		NS
$$ 		TEXT	" "
$$ END
$$ NAME		DS
$$ 		TEXT	" "
$$ END
$$ 
##$PARAMETER FILE=	(intrng, ASCII, c:/Mestrelab/Projects/Demo%20Data/2D/Taxol-1D-and-2D/H-1/pdata/1/intrng, 0)
$$ A 1.0 #regions in PPM
$$ # low field   high field  bias        slope  
$$   5.05672933774767  4.70026077431394  0  0  # for region 1
$$   1.9907101090881  1.58895250685746  0  0  # for region 2
$$ 
##$PARAMETER FILE=	(parm.txt, ASCII, c:/Mestrelab/Projects/Demo%20Data/2D/Taxol-1D-and-2D/H-1/pdata/1/parm.txt, 0)
$$ 
$$ Current Data Parameters
$$ NAME              taxol                
$$ EXPNO                 1                
$$ PROCNO                1                
$$ 
$$ F2 - Acquisition Parameters
$$ Date             950731                
$$ Time              12.06                
$$ PULPROG              zg                
$$ SOLVENT          Aceton                
$$ AQ            3.4213967 sec            
$$ FIDRES         0.146157 Hz             
$$ DW                208.8 usec           
$$ RG                  256                
$$ NUCLEUS             off                
$$ D1            2.0000000 sec            
$$ P1                  6.7 usec           
$$ DE                  4.5 usec           
$$ SFO1        300.1313759 MHz            
$$ SWH             2394.64 Hz             
$$ TD                16384                
$$ NS                    4                
$$ DS                    0                
$$ 
$$ F2 - Processing parameters
$$ SI                16384                
$$ SF          300.1300034 MHz            
$$ WDW                  EM                
$$ SSB                   0                
$$ LB                 0.30 Hz             
$$ GB                    0                
$$ PC                 1.00                
$$ 
$$ 1D NMR plot parameters
$$ CX                20.00 cm             
$$ F1P               8.562 ppm            
$$ F1              2569.85 Hz             
$$ F2P               0.584 ppm            
$$ F2               175.21 Hz             
$$ PPMCM           0.39893 ppm/cm         
$$ HZCM          119.73180 Hz/cm          
$$ 
##$PARAMETER FILE=	(procs, ASCII, c:/Mestrelab/Projects/Demo%20Data/2D/Taxol-1D-and-2D/H-1/pdata/1/procs, 0)
$$ ##TITLE= Parameter file,  UXNMR		Version 941001.1
$$ ##JCAMPDX= 5.0
$$ ##DATATYPE= UXNMR Parameter Values
$$ ##ORIGIN= UXNMR, Bruker Analytische Messtechnik GmbH
$$ ##OWNER= root
$$ $$ Mon Jul 31 12:39:19 1995
$$ $$ File: /u/data/cpeng/nmr/taxol/1/pdata/1/procs
$$ ##$ABSF1= 10 
$$ ##$ABSF2= 0 
$$ ##$ABSG= 0 
$$ ##$ABSL= 0 
$$ ##$ALPHA= 0 
$$ ##$AQORDER= 0 
$$ ##$ASSFAC= 0 
$$ ##$ASSFACI= 0 
$$ ##$ASSFACX= 0 
$$ ##$ASSWID= 0 
$$ ##$AUNMP= <proc_1d>
$$ ##$AZFE= 0.1 
$$ ##$AZFW= 0.1 
$$ ##$BCFW= 1 
$$ ##$BC_mod= 2 
$$ ##$BYTORDP= 1 
$$ ##$COROFFS= 0 
$$ ##$DATMOD= 1 
$$ ##$DC= 2 
$$ ##$DFILT= <>
$$ ##$DTYPP= 0 
$$ ##$FCOR= 0.5 
$$ ##$FT_mod= 6 
$$ ##$FidCorI= 1 
$$ ##$FidCorR= 0.5 
$$ ##$GAMMA= 1 
$$ ##$GB= 0 
$$ ##$II_path= <> 
$$ ##$INTBC= 1 
$$ ##$INTSCL= 4.081663e-10 
$$ ##$IR_path= <> 
$$ ##$ISEN= 128 
$$ ##$LB= 0.3 
$$ ##$LEV0= 0 
$$ ##$LPBIN= 0 
$$ ##$MAXI= 10000 
$$ ##$MC2= 0 
$$ ##$MEAN= 0 
$$ ##$ME_mod= 0 
$$ ##$MI= 0.5 
$$ ##$NCOEF= 0 
$$ ##$NC_proc= -6 
$$ ##$NLEV= 6 
$$ ##$NOISF1= 0 
$$ ##$NOISF2= 0 
$$ ##$NSP= 1 
$$ ##$NTH_PF= 0 
$$ ##$NTH_PI= 0 
$$ ##$NZP= 0 
$$ ##$OFFSET= 8.562442 
$$ ##$PC= 1 
$$ ##$PHC0= 219.8899 
$$ ##$PHC1= 3.200185 
$$ ##$PH_mod= 1 
$$ ##$PKNL= yes 
$$ ##$PPARMOD= 0 
$$ ##$PSCAL= 0 
$$ ##$PSIGN= 0 
$$ ##$REVERSE= no 
$$ ##$RI_path= <> 
$$ ##$RR_path= <> 
$$ ##$SF= 300.1300033545 
$$ ##$SI= 16384 
$$ ##$SIGF1= 0 
$$ ##$SIGF2= 0 
$$ ##$SINO= 400 
$$ ##$SIOLD= 4096 
$$ ##$SREGLST= <1H.CDCl3>
$$ ##$SSB= 0 
$$ ##$STSI= 16384 
$$ ##$STSR= 0 
$$ ##$SW_p= 2394.63601532567 
$$ ##$SYMM= 0 
$$ ##$S_DEV= 0 
$$ ##$TDeff= 16384 
$$ ##$TDoff= 0 
$$ ##$TI= <pinene H1 spectrum>
$$ ##$TILT= no 
$$ ##$TM1= 0 
$$ ##$TM2= 0 
$$ ##$TOPLEV= 0 
$$ ##$USERP1= <user>
$$ ##$USERP2= <user>
$$ ##$USERP3= <user>
$$ ##$USERP4= <user>
$$ ##$USERP5= <user>
$$ ##$WDW= 1 
$$ ##$XDIM= 8192 
$$ ##$YMAX_p= 341637539 
$$ ##$YMIN_p= -4520961 
$$ ##END=  
$$   
##$PARAMETER FILE=	(pulseprogram, ASCII, c:/Mestrelab/Projects/Demo%20Data/2D/Taxol-1D-and-2D/H-1/pulseprogram, 0)
$$ # 1 "/u/exp/stan/nmr/lists/pp/zg"
$$ ;zg
$$ ;avance-version
$$ ;1D sequence
$$ 
$$ 
$$ 
$$ # 1 "/u/exp/stan/nmr/lists/pp//Avance.incl"
$$ ;Avance.incl
$$ ;
$$ ;version  94/10/13
$$ 
$$ 
$$ 
$$ 
$$ 
$$ 
$$ 
$$ 
$$ 
$$ 
$$ 
$$ 
$$ 
$$ 
$$ 
$$ 
$$ # 7 "/u/exp/stan/nmr/lists/pp/zg"
$$ 
$$ 
$$ 1 ze
$$ 2 d1
$$   p1 ph1
$$   go=2 ph31
$$   wr #0
$$ exit
$$ 
$$ ph1=0 2 2 0 1 3 3 1
$$ ph31=0 2 2 0 1 3 3 1
$$ 
$$ 
$$ 
$$ ;pl1 : f1 channel - power level for pulse (default)
$$ ;p1 : f1 channel -  high power pulse
$$ ;d1 : relaxation delay; 1-5 * T1
$$ 
##$PARAMETER FILE=	(title, ASCII, c:/Mestrelab/Projects/Demo%20Data/2D/Taxol-1D-and-2D/H-1/pdata/1/title, 0)
$$ 1H of taxol(2) at 303K
$$  (CDCl3)
##$DECIM=	
##$DSPFVS=	
##XUNITS=	HZ
##YUNITS=	ARBITRARY UNITS
##FIRSTX=	2569.845672607421875
##LASTX=	175.35584326088428497
##DELTAX=	-0.14615698158740997314
##XFACTOR=	1
##YFACTOR=	0.011726017481180104479
##FIRSTY=	-15.707825660705566406
##MINY=	-15.993236541748046875
##MAXY=	1296.7725830078125
##NPOINTS=	16384
##XYDATA=	(X++(Y..Y))
2570a339J1J1j0j0j3j3K0K1J4J3J4J3PQPPJ2J1J2J2qpK7K6QPQPMNMNK0K1K0K1KKKJJ1J1J1
2564i84J0lmJ7J7%%L5L4J2J1rrj3j2K1K2K1K2%JLMLLQRQQK0J9j6j5J4J4J4J4J%K2K1jjjjP
2557f54PK8K8mmJ6J7onnoK0J9jjRRJ0RRRRJ0nmJ6J6NMNMNNNNKJJJppJ3J3J0J1J0J0QPQPj2
2549c40j3QQQQRQlkklkkjkK5K5MNQRQRQRQRj6j6NMJ0Rj0j1QRQRJ6J6nnj3j4K1K1MMMMMMj6
2541a40j6J4J5J4J4ppppMNNNOPPPkkkkRQRQllJ8J7rrrj0J8J8lkQQj2j3nnJ6J5lmllRJ0j1j1
2534c6MNMMNMMNj0rJ1J0qrK4K5J9K0jjJ4J4J4J5j5j6ONJ4J3k1k1J0J0J0J1PQj3j3OOPOk7k6
2527I4QQqrqqjjjj%J%JjjjjK3K3KKk9l0qrK3K3j2j1K1K1M1M2J3J4k1k0%%%%MMMMj0j0rj0k0
2519A36k0JJRRk6k6LKLKlmlmrj0J1J1j2j1j2j1klJ8J8J6J6mnJ6J6j9j8k9k9J9K0J5J5nok0
2513F6k0JJj6j6NNK3K4j1j1j0j0J0J0mnnmRJ0j1j1PPPPmmJ7J7QQj2j3rrrqPPK8K8qpppj2j1
2506E8J0RJ9J8j6j5MMj7j6j4j3L4L4J2J3qqlklkklklj8j8KKj7j8KLK6K5rqooonL1L1llqpq
2499G0pJ7J7llj9j9KKJ7J7J7J7j5j4j4j5rrrrRJ0RJ0j1j2j2j1MLMMJ0RJ0Rk4k3J0J1K9L0n
2492A04nqrrrklkkJ4J5opmmmmk4k4K4K4KKKKPPPQj7j7J8J8kkjkNNMNj2j2RQmmnmllll%jjj
2484F7NMNMJJ%Jj9j9JJJ0RJ0J0KKLKQPQQj3j2j2j3NNj6j5klJ8J9nnJ6J6k8k8qpOOOOK8K8o
2476A17oj4j3PPoopoMMNMj3j4K1K0noJ6J5j9j9J6J6LMMMl2l2KKMMNML2L2j6j6J3J2qroooo
2469A06J0J0j1j0K4K5LMmnnnjjjjjkjkj0j0J0J0L4L3kjoopo%jj%QQPQJ5J4J4J4nmnnK2K1K1
2462C02K2J1J2J1J2L6L7J5J6K2K1JJK4K4M4M5PQj3j4L6L6L6L6L5L5J5J5K5K5M6M5M3M2M2M3
2456A199L1L0N2N1O1O1M1M0M6M6O6O6O4O4O4O4Q2Q1O1O1P1P1P2P1J15J16R5R5J20J20J40J40
2452C557J43J43J78J78K74K74K94K95L52L51L18L17K91K91L66N03O39P76R80J227J433J570
2449A4750J723J764J565J319J057Q10O81O41N45M09K18j38o36j156j467j548j426j289j131
2446A6691q85p70p71p89r26j039j038r76q39p18n82m55l18j75r3l4M8J33J73K53L35M15M98
2442H138N03N03N51M70L96L56L35M73P11J012J381J681J960K096K018J827J442Q14o8q60j390
2439B4349j526j301q91m53m3J27rm96j071j575j876j972j931j771j580j304j059q23o87n45
2436C563m08l52k71k12k13j33j33j28j27q1q0n8n8p9p9p9p9p9q0m1m1m1m2k4k4k5k4l7l8l8
2432D59l7lmk3k4rrj0rRJ0k5k5J7J7j7j6QRj2j2popoj0j0J1J1POj3j4j6j6MNJ1J1rj0l3l3
2426A70J4J4k1k1k1k1jjJ9J9J1J0rj0J%JJJ9J9j6j5llllJ3J3k1k2J2J3rqJ3J3J3J3nnmnj8
2419A56j7KLJ4J3opj5j5j5j6qrJ2J1k6k7K1K1LLLLJ1J1k3k4nnJ6J5J5J5k0j9RJ0j1j1PPPP
2413A16kjkkllL1L1J0J1j1j0j1j2j2j2lkllJ9J8J8J8J5J5ooj5j5j5j5MMK5K4oonoqqqqJ7J8
2406A75j7j6j8j8KLQQk6k6QRQRj4j3OP%J%%J6J6nmk0k0K9K8%%%%j4j5j4j4RRj1j1j7j7j7j7
2400GJ2J2rqnnmmJ2J3J3J3QPPQK1K1k7k7J7J8llrqJ3J2K3K4j1j1l2l2j2j2K5K4MMk2k1J3J2
2393G8NMMNOPk7k7J1J1J1J2k6k5RQ%j%jOOK6K6jj%jklJ8J8j3j4j4j4onnoj0j0K3K4JJk0k0
2386F8ooookkklJ0J0J0J0J9K0kjJ3J3k1k1j2j2RRJ7J7j7j7qrqqJ0J0RJ0j1j1RRJJk0j9K7K7
2380A08OPj0j0j0j0%j%jJ1J1rj0j3j3L5L5mlllJ1J1rj0j7j7j7j7K7K6pqNNNNj5j5ONOOj4j4
2373G1k3k3lkKKj9j8j2j2j2j2k6k5RRM4M4QRL0L0RJ0L1L2J1J1J3J3L4L4nmnnQPPQJ9J9K0J9
2366C57KLKLj5j4j4j5j9k0J4J4K5K5rrK3K3KLj4j4j4j4lllmkkkkpoJ3J4RJ0k5k5MMMMopop
2359B77QRQRJJJJj4j3PPJ2J1L2L3LLj7j7llklLLK4K4l8l7j7j7J8J8j7j6NNONj4j5OOj1j1j1
2353B70j0ppppKKKKL4L4j4j4J2J2l6l6j4j4POK2K2KKkkjkK4K3MLOONOMNMNJ9K0K0J9K2K1J
2345D75Jj%L4L5MNMNJ7J7L8L8j3j3PQJ9K0O7O8L7L6LLJ8J9J8J8MNK5K5K9K9K8K9M1M2K1K1
2340A286L6L6L5L6N2N1N2N1N4N3N4N3N3N4N3N3P3P2P2P2P1P1P1P1P9P9N9N9J24J23J24J24
2335C406J27J28J61J62J79J79K00J99K52K52K67L50L17L16K75K74K72K72L64N01O88Q79J088
2331A1108J279J449J641J710J711J447J147Q62O70O03M67L06J15j49n59j007j307j398j316
2329A8779j159r67q38p01o58o59p96r34j018j019r20p83o68m78l54k73j49o8K4J06K35L18
2325G020L64M46N08N08N43N44M59L78K91K92M50O96R91J347J692J992K192K109J881J470Q31
2322B7004j7q75j448j600j354r65m99n4J38km66j011j476j743j879j889j806j622j376j176
2319E884r31p63o26m71l89l29k47j95j95j29j29r6r7r6r6n5n5n4n5o3o4j5j6n6n7l5l6k1k1
2315D92%%j2j2m6m6j4j4K0K0j1j1j2j1j0j1J0J0kkkkjjjjooopJ1J1J1J1J7J7J7J7PPOPONN
2309D60Nj0j0J1J0j4j5OOj1j1J0J0OONOKKKKRRQRqrqrJ9J9J9J9llJ8J7L4L3L4L3k2k3K5K5
2302G23L0L0L0L0MNK4K5K0K0K0J9KKL6L6RQRRM4M5K3K4N6N6K2K2N4N5Q8Q8J21J21J69J69K10
2297B458K09K58K57K24K23J71R0J06J87K38K39K47K48J34kj52k34k26k26j45o4m8m9j41j42
2293C860k52k53k50j68j06j07r0qK1K0N5N4J15J16J79J80K28K27L05L05L16L17K47J10L5L4
2289E490L2J13K54L92N81P72R14J105J231J230J098Q53M86K2l55p09j016j152j253j211j027
2286G850q35n94m04k79j42n9n8r9k35l22m03l82l40k68j86j18p7n7j5K6K7Q6J27J45K27K86
2282C901L68M64N46N80O21O14N31L64K27J81J81K68M06M78N19M77K31j88n44p69q09p33n41
2279G373l82k99k58l39m48n84o65o24n52m71l67k85k32j92j25j25p5p5m6m5m5m5l0l1MLpp
2275A026pqK5K4rj0J1J1J1J1J9J9J9J9L2L2L3L2M4M3K4K3L7L7L7L6N7N6K2K2M5M6O7O6N8N8
2270B068P9P9O2O2O2O2P6P6J24J24R7R8J32J32J05J06J25J26J56J55J76J76J99J98K42K82
2266E379L48M29M91M91N26N67O36P18P75R12J079J271J431J623J673J538J192Q91N88K32j92
2263B2598o57j005j252j323j241j046q00o19n38n76o18o46o06n02m19k79j98j32n1J1J48J98
2260A0447K80L02K61J15L3MQ5J64L01M54N90P37Q19R44J080J191J273J340J382J351J159J030
2256B5342R48J051J296J558J695J704J405Q41M8o64j128j378j378j250j058q04o13m38l00
2254B6877k71k72k05j22O0L07O55J011J313J394J276Q10J80l94r98j518j831j968j907j660
2251B2737j344r34n48k48j0J80J16k2j62k45j93j11Q4K76N07O45O88O07L47J01J0R2L38O38
2247B3549Q78R60R79Q97Q47Q47R30R31R39R39R74J055J239J321J283J201J044O88N7n72j062
2244C9924j253j359j440j534j671j885k187k529k721k786k649k366j955j556j147q62o71n06
2241H847m23l96l95l56l56l36l35l48k65j85j84r9r9m8L4K2K3R3R4J46J47J69K50L35M71N49
2238G355O87Q11Q93J010J010R47Q10N88L42K13K14L18M54N91N92M64N4m53q63j177j259j201
2234A2400j010p71n24k65j28jQ1J54J54M7l6j09j10q4m3M4J25K29L11M03N40O73P54Q82R63
2231A4679J075J157J200J242J351J543J844K255K731L086L370L452L208K743K122J548P64
2228D9370m65j876l051l789l925l587l014k298j614j140r48j019j210j404j541j615j533j427
2226A3914j181r06p15n95m04k28j47p2J1J07J90K58L95N38O75Q83J075J286J533J771J963
2223B0351K032J950J844J653J412J220J160J350J692J992J999J699J239N01o36j702k589l273
2220C3894l599l640l408k942k346j826j436j136r76q95q36q37p46o64o02m65l76k39j49o7
2217F709K6J63K40K82M27N65O90P72Q76Q76P76O40M82L45K39K79M36O82R54J145J245J162
2214B0011Q67L48k43p63j140j276j153r07o78m87n04o95r61j153j172j172j047r11p41o05
2211E618m31k93j44o1O5J47J69J69J14L2n4j35k04k04j24m1O6K04L50M87O17P53Q31Q30P82
2207I543P00M97K50j33m34p88r79j067j067r94q57p37n46m27l44k55j73j13K4O9P0R3R3P8
2204B503nj09j08j65j65j18j19j05k3K6K6M3M3J12J11J50J49Q2Q1M9M8K9K8R6R6P0P1jq4j87
2199B624j88j85j85j45j44o0o1q1q1j35j34j55j55j02j03o2o1l6l5l5l6k5k5J6J6k7k7k7k7
2195C19k7k8opqqqqpoppopppj0j0J0J1nmnnqrqrPOPOPOj4j4J9K0k9k8K7K8K7K8j8j8KLJKK
2188A90JPOj4j4j5j4OPJJJJllklkkkkK9K9K9K9k5k6RQL0K9nmQ8Q8O7O8P3P3P3P3n9o0j22j21
2181E18p5p5n4n4k2k2kjrrk9k9J0J1J0J0lmllk8k8K1K0K3K4j1j1K4K4LLKKKLMLK5K4k3k4J0
2175B57J1j1j0J0J1RJ0RRj1j1j2j1kjkjJ8J8j6j6J6J6nnqrJ2J3j0rj0roppoJ0J0j0j1rrrj0
2168A86j1j2j2j2J0J1j0j0J3J3J4J3nnnmM0M0NOj8j9j8j9J2J2J1J2j1j2j1j2M0L9l6l6nno
2163A83nPPj4j4ppppqqJ3J3j5j5j5j4MMK4K5qrrqppqpPPPOPPPPlkklLLLKOOOOKLKKj3j2QQ
2154A61mlmlj6j6j6j6OPOOOPOOQPK9K8J2J3k2k1kjjjooooK2K2K2K2J3J4ppppJ4J4%%J%j7j7
2147B40j8j7LKKKj1j1RRQQk6k6kjkkJ1J1j0j0j4j3PPrrJ1J2nnJ5J5K4K4K5K4MMK4K4k8k8N
2140B83OMNj6j6rrrrj5j5j5j6PPPPjkjkj4j5j4j5j3j2K1K1J5J5onj2j1K3K3llllK6K6NOj0
2134B33j1j0j0K7K6K7K6m4m4j0j0mmlmpoppmnJ7J6ONj5j4K0K0K0K1rrrqKKKKJ0J0j0j0KLK
2127B25LqqJ2J3mmmmKLLLK2K1j2j2onno%j%%K7K8PPlmlmNMMMllJ7J7lmk3k4K0K0J9K0J4J3
2119C80J4J3K3K2j1j2RJ0RRllL1L1L0L0RRRQK9K9ooK7K8ONM0L9L4L4%%K5K5K5K5L6L6J5J5
2113A078M0L9M0L9K0K0N4N4L5L5L5L5N6N5N6N6O4O5O4O5Q6Q6O6O5Q5Q5J19J19J18J17J66J66
2109C283J88J89K23K23K72K72L07L07M06M06N08N09N69N70N69N70N30N31M30L34J85Pj40l17
2105A0931m49n44o23o63o34o34n79n37m81l84l30l29l28k60k03j62j60j19j06j05p6p7m2m1
2102C065k5k4K4K4J3J3P5P4Q2Q2Q2Q2J60J60J81J81K17K17K93K92L66L67M42M41N25N25N58
2098H492N59N43N44M64L83K27R1o0k51m16n53o40p22p16p16o92o10n54n54m93m11l60l60l12
2094B883k30j81j81j76j76j38j38j34j33j21l9o5o5o1o1o1o1m3m4m4m4j4j5j4j5l2l3n3n2
2090D59PPk7k7%%k1k1k7k7k8k7j4j4POJ5J4oom2m3ONj0rj0j0k4k5K4K3QQj3j3KKKJllmlj5
2083A24j5NNMMMMj6j6j6j5MMMNk7k7K1K1J7J8mlj9j8KKk1k0%Jj2j1K4K3j3j3QQRJ0j1j1LL
2077D9j7j7KKKKJ%JJk6k4k6k5k8k8POk5k5k5k5j8j8J6J6M9M9M9M9L1L3jkRRQR%%K1K1pppq
2070H3lmlmllL1L1j2j2j3j2ONNNKJKJJJK1K1k0k0%%RRj2j2NMNNJ2J2rqnnnnk7k6QQrrJ2J1
2062G5L3L2j5j5k4k3J0J1LLLLL6L6m0l9NMj6j5J7J7J7J7l3l3KK%%K1K1JJk0j9J0J0J1J0j9
2056A00j8j9j9K5K5MNk1k0%%k9k8L3L4j6j7J8J8lmmmJ7J6mmj7j6j7j6LLLLJ1J1J1J1k7k7K1
2050D2K2j6j7j6j5J7J8J8J8j2j3j3j3%%j%j2j0PRRRRRj4j4j3j3MMMMJ0RJ0Rjkjkj0j0j1j0
2044BJ0RL0L0KJKJqqrqqrqqLMMLj3j3PQj2j2j2j2NNNNRJ0j0j0j1j0J0J0J1J2J1J2k9k9J8J8
2037A8k2k3kknoJ6J5ONNNj0qRJ1KKKKJ1J1k3k2PQj2j1llllJJJJk0k1%%J1J2J2J1PPj2j4k0
2030d6k0k0k0LKLKk8k9k9k8nnnmM1M1M1M1J1J0J0J1PPPOJ7J7J7J8j9j8j8j8OOOOQRQRj6j5
2023B7j6j4OQQQj4j3OOklklRJ0RRJ4J5J4J5nmk6k5llllj7j6J6J7ooJ5J5nnnn%J%%RRj1j2q
2015A1qK7K6j5j4j4j4K5K6k2k2MMMLQQj2j2k0k0%%j2j3K2K2PNk7k8J2J2J3J2J2J4k1j9KKK2
2009A0K2J6J5nnrqrqJ6J6nnk3k3L8L8OOj4j4K0J9j4j5j9j8KKKKKKLLMLllllmmJ6J7mllmK5
2002G7K5k3k3nmnnj1j0J0J0J1J0j0j1LLKLpppqqqqqK0K2%JJ5J4J5J4k2k1J2J2j2j2QQj4j5
1995C1OOonJ5J4%j%jrj0rj0j2j0j2j2J3J2J1J2NNMNk4k3lmpqqqK0J9jkK9K9j8j9k1k2J2J2
1989emmmlK0J9j%oonnqrJ2J2MMMMooonJ0J0j0rNNNOK2K1KJkkkkooK9K8KKj8j9mlk5k4QPj3
1981A4j2J2J2J2J3j9j9JKKLj9j7NNNMJ4J4J3J4J7J7j7j7pqJ4J3k2k1J3J4ppk7k6mllmklkl
1974c6K2K0K2K1%%%%%%%%J1J1J1J1k5k4mmRQRRrqqrNNj5j6OPOOOPPOJ0J0j0j1j2j2K2K2LL
1967I2LLk6k7noonM2M3k1k0%Jlmk3k4J9J9jkRRQRj5j5j5j5J7J7J7J7kkJ8J8j4j4PPj2j2RR
1960A04opJ4J4rj0J1J0J%J%J9K0J9J9ppppK3K2j1j2mmmmKJj9j9kklkKKJKj4j4j4j4j4j4OO
1953F9NNNNJ0RJ0J0j%%jppopJ0J0J0J1j3j3j2j3J6J6mnQRQQk7k7po%%K0K0kkkkRQk5k5j4j3
1946E0K0K0ooJ4J5mmnmj1j1J0RNNNOj4j4K1K0mlmmnnnnpopoK1K2%Jj0rJ1J1klkllllmJ7J7
1938A18j7j7QRj2j2PPPP%%k0k1kklkKKK2K2qrrrPPj3j4j4j5L3L3MLMLRRj1j2jjjkQPj3j3j0
1931G5rJ1J1ONj5j5QQQRlkkkj%jjpoJ3J4J4J4ppRRJ0Rk6k7noJJK1K2j3j2j3j3lmmlJ1J2rr
1923G6K0J9kjk0j9%JPPPPLLLLrrj0rmnmmJ8J8J7J8j3j3j3j3MNNNmlmlj1j1K3K3K0K1%%PQP
1916A71QnonnLMj7j7J2J1J2J1oooprrrronK9K8j2j2j2j3poK7K7k0k1%%J5J5J5J5j9j9KJK1
1909A59K1K0K1POOPrqJ2J3nmnmrrrrjjjjJ7J7j7j7J2J3J2J3llklNNK6K6poK9K8K2K3K2K3j7
1902D15j7J7J7pqJ4J3%JK0K1%JK1K0J2J3L2L3J2J2J2J2M1M1M1M1K8K9K8K9M2M1QQM4M4M4M4
1896A219L8L8L8L9M5M6O6O6M3M4M4M3N5N5N5N5N1N1P2P2P6P5P6P6Q7Q7Q7Q7P7P7R8R7J08J08
1891C451J29J29J55J56J55J56K47K47K13K13K71K72K72K72L93L94M60M60N83O65P41Q79J071
1888A1984J316J550J795K109K355K508K507K418K117J573P80j18j075j861k434k779k861k731
1885A9153k431k089j733j423j122r08p16n28l92l31k49j61q0j01j02r6r6j07j06j07j06q1
1882F088q0n9o0j00j00j21j21j70j70j91j91j92j92j59j58j56j57j22j22r4r4r3r4m5m6KL
1878C006NOK6K5O1O1R6R5J33J32J54J53K18K19K79K80K87K87L22L21L70L70L70L69L99L98
1874H442L55L14K61J78R8J5n9o0o4o4l9l9p3j56k10k92l85m26m74m74m28m29l85l86l38l38
1871D544k99k99k66k65k02k03j82j81q8q8q8q8m5m4J7J7L1L0L1L1N5N5P5P5Q5Q4J31J32J40
1866C195J40J40J40J34J34J54J55J07J08M6M6j5j5j5j4n4n4q8q8q2q2j57j57k10k09k10k10
1862B839j98j99j78j77j48j49j48j48j36j37j02j03p0o9q5q5q8nl1l0l4l3l3l4j5j6j5j5m9
1858C09m9k9k9OONORJ0k5k4PQj3j3J6J7j7j7j8j8KKj4j4j4j4k3k3J1J1RJ0j0j1j0j0J1J0K6
1852I6K5l7l6LLK3K4ook7k6qqqqJ9J8J9J8NMj5j6j3j3K1K1k0k0J5J4jkjkj0j1J1J0j7j6j7
1846Ej6J2J3J2J3ooJ4J5j9j9KK%%%JnmmnQPQQLLLMKKl1l1j2j2K2K1K0K1%Jj4j3j4j3j3j3K1
1839gK0J1J0j0j0PQPPLLj7j8OOOOmnnmkkk1k2klkkK8K7PQj7j6NMk0k2J3J3K6K8ppk8k7L2L3
1832D4rrrrPPPPnonoLLLLjjjjjjjjQPPPRRk5k5nmJ6J6qqJ2J3nnJ5J6mmk5k4mlJ7J7popoJ7
1824B9J7j7j7KKKLj2j0j2j1RRK9L0jkkkJ0J0j1j0RJ0j0j1j0j0j0j1K1K0%%MMj7j6J1J2J1J2
1817F4llJ8J8K5K5MMj7j8J7J7KKKJmnmn%%j%j5j4J9K0j3j4j4j3lllllmllMMMMLLj7j8llk3
1810B8k4J8J8J8J8klkkmmmmMMMMj8j8K9K9j6j7J8J7rrrqK9L0j7j8j7j6MMQQQRqpqqJJK2K1
1803A02j4j5OOj7j6j7j6J2J3J2J3LMMMj1j0j1j0k0k0J4J4K3K2j1j1KLKLK0K0j4j5%%%jj0j0
1797E3j0j1J2J2J2J2ppqpnoJ5J5pqJ4J3k1k0%%qqqqkjkkJ1J1J0J1J4J4k1k0k1k0K5K7K4K4
1790I1MMj0j1j0j0%%%JqqqqK1K0%%l2l2j1j2L1L2L2L2j0j0j1j0ppk8k7K8K8K8K9opk6k7K7
1784G2K8poKLLLRRJ0R%j%jmmk5k5j7j6MMPPPPlmlmMNMMmmmnjjjj%%k1k0K5K5j0r%%J%J2J2
1776G5J2J2ooK8K8k8k9qqJ4J4J4J4J0J0j1j0j6j5j6j5PQj3j3JKj9j9LMLMJ3J4poJ0J1J0J0
1769H6j7j8LKJ2J1J1J2j0rj0rPQQQOOj4j4k2k3J2J3j0j0j0rK7K7OORQk6k6J2J2J2J2JJJKJ5
1763A19J6J6J6j2j3l2l3J5J5J4J5J3J4k0k1J4J5J4J4ppK7K7qqrqMMK5K5llmlK4K3K4K3MMM
1757C37MK7K7PPJ5J5J5J5J5J5J5J5K0J9M1M0QRK9K9K0K1K0K1K8K8K8K8J7J6L7L6K5K5N9N9
1751A192L9L9M0L9M1M1M1M2O2O2O2O2Q6Q5Q6Q5J13J13J34J33J72J73K20K20K92K93M09M09
1747D785N01N01N62N63N74N74M96M14L57K20Q3n3j65k48k96k96k25j83j28m6O4K00K56K56
1744H766K62K21J28M6j20k03k85m21n01n41n88n89n38n38m06m06l28k87k51j69j06o5o3o2
1740B956j8j7M4M5Q6Q6J47J48K28K28K73L55M10M51M42M83N42N00M52L69L16K34J21j6j62
1737H703k44k82k82k50k50j75r2k1O1J44K27K25K25J65Q3m4j81k76m13m86n68n66o07n96n56
1733C944m99m59l89l48k84k43k26j44j26j26j17j17q3q3m8m8o8o9l2l3j2j3j4j5j5j5j2j3
1729B93j2j3j5j5ONklk2k3j0j0j1j0J1J0J0J0J3J3qqj0j0J0J0QPQPRQQRmlJ7J8J7J7J8J7j8
1723C52j7J6J7RRRJ0K2K3LKMMMMK8K8K7K8JJK1K1K0K0K0K0J5J4J4J5K4K5K5K4M5M4M5M5J5
1717A056J5M9N0M1M1M1M2M9N0L0K9M9M8M9M9N9O0Q0Q1Q3Q3Q3Q3R1R2J11J12J38J38J58J58
1712C298J90J90K68K67L08L48L74M55M83N66O08O90P91P92Q25Q26P68O86N66M29K52l6k62
1709A3682m39o10p32q30q98q55p86p47o79n98n29m29l60l12k71k21j81j16p4q4m3j%O4O3R5
1705D109R4J72J73K10K52K95L63M39M80N29N97O80P47P86P87P30O90N69M19K61Jk28m61o37
1702A2057q16r16r58r61r21q79p84p01o32n27m60l98l30k96k55k45k04j91j91j31j31o9p0
1698I91o9p0p0p0m9n0k9k9j5j5m9m9k4k4llj1j1l1l1j7j7j8j7LMj8j7JJ%Jm5m6KKMMj7j6k0
1692F3k0J4J4mmJ6J7kklkj5j5NNJ1J1k3k4J6J6j9j8%j%%qrJ2J2jjjjJ5J5nnj0j1J1J0j1j1
1686C7j1j1JJJ%MLMLllk4k3K3K4LLMNMNk0k0%JJJK2K2%j%%k3k4J1J1QQQQMNj6j6j1j0j1j0
1678bRJ0J0RJ2J2k3k2nnJ6J6llllJ4J3opMMj6j7ONONk0j9JJk0k0J4J4J6J6J6J6j2j2j2j3k
1672@lllMMLMNOj6j4POOPNOj6j4KJKJj1j2j1j1J%JJMMMMK3K2j1j0NNONNNMNk1k1jjJJJ%oo
1663a5J5J3j3j3POjkkkk7k8K1K0mnmmj8j8KLpopoK8K8ooJ9J9jjJ0Rj0j1mnk5k5j1j1N1N0K7
1657C0K7l5l3K2K3j1j1j2j3j4j3K2K1JKlljlonnoPOj4j4j4j4OOPOOO%%%%qpJ2J3JKJJj1j2
1649d0j1j1L1L0RJ0k1k2kjJ4J4J5J4klklj8j6j8j8J4J5J5J3j8j9JKLLML%j%jnmnmjj%jK2K1
1642EJKJJJJj8j9j8j9PPOPRRRQpqqqJ4J3poJ6J6J7J6ONONk4k5mnj%jjjkK0J9JJK1K2mmmmj
1634G3jjjoooorj0rrPQk5k7K9L0nmLLKLLLj8j7KKLKLLLKJ6J6nnj2j1RRj2j2j3j1j0j1j0j1
1627d9MMLMK1K1JJnmJ6J7k3k1k2k3QQQQnnnnNNNNJ5J4j8j9L5L6KKj7j7LMQRj2j2j0rl1l0K8
1620d2K9PPk6k7opJ0RJ0J0NOOOk0k0J4J5PPj1j3pqK7K6k1k1J3J3MOONj9j8JKQQRQJ%J%j8j7
1613a5KKj7j8KLJ5J4ononK8K8k3k3llNNj6j5JJK1K2%j%jqrrrJ5J5onj1j0J0J0rqqrJ1J1k4
1605f1k3J8J8llJ2J2k2k3mlJ6J7LLLLrqrrPPOPQQPQPPj3j3MMMLONj4j5KKKLonJ5J5j4j4j4
1598d3j4K0K0j%J0Rrj1NNj5j5K2K1KKj8j9J5J4j0j1j1j2lmmmJ0J0J1J0NNNMNNNNppk6k8J8
1591b9J9kkmlJ7J6j2j1j2j2LLj7j8rj0K5K5popokjJ9J9K1K1j3j1qpppnmmmppppK2K3K2K1j6
1584hj7j7j7jkkjQRQRK2K1KKk3k3J0J1rrrqj6j5NNK0J9jjJ4J4moMNMMkkkjNOOOl6l6J2J1j
1576b7jjjK0K0J%popplkllJ1J1rrk5k5J0RK1K2JJLLj7j8j1j1K4K3nmnmj7j6J7J8J5J4J4J5
1570B9NMNNqrqqK3K4k4k4J0J0J0RkkL1L2l3l4j3j2k1k2kjPPPOklJ6J7POOOj1j1j1j1J1J2J2
1563D5J2j8j9LKllmlrqK4K6LMMMK0K1k7k7J1J1J1J0J%J%K0K0M0M0RQRRK1K2JKj8j7j8j7jj
1556B21k1k1k1k1%jnoonj0rj0rrrrrjkjkMLj7j7nmon%%%%J0Rrj0l0l1L1L2kkkkJ9J8j5j5J2
1548@J3k0k0RRj2j1k1k0K7K8oopoj2j1L6L5K4K5l7l5KKKKj8j9LK%jj%J4J4J4J4qpqqJJJJj1
1541b6j1J0J0QQOQk0k2jjNNNNkjjjqpJ3J3j1j0j1j0QQRQk0j9J4J5%J%%NNMNj9j8J5J6QPj2
1534gj3nnnnJ0J1j1j0kkkk%%K1K1OOOPLMj7j5J3J5J5J5nmk4k4OOPPQQj2j2KLLKqqJ3J2l1l0
1527b9LLJ1J1RJ1KKKKk5k4K2K3NNONmlmmj0j0rj0J0J1L1L2ooooj0j0rj0OONOOOOOkkkkj9j9
1519A2KJJ9J8J8J9llJ8J8rj0J1J2j0j0j0j0ONK6K5j9j9M3M2k7k7ooJJJKppqpL4L3J3J3opo
1512A76oj0rJ1J1n1n1K4K4K5K4j0rppoprrK5K5j3j4j3j4MMMMrrqrK5K5j0rK5K5MNJ7J7lmP
1506B05PQPJ2J2J3J2nnJ5J6k0k1J4J4J4J3J4J4K0K0J9K0J6J6mmJ%JJL5L6J5J5L8L8LMM0M0
1500G09qqJ4J4J4J3N5N4OOK7K7pqM7M7M6M7J2J3L2L3M3M2O3O4M5M5O6O6Q5Q6O4O5Q8Q8J09
1494B204J08J39J39J87J87J95J95K98K98L48L48M23M23M32M33M75M75M41L59L19K36J62J22
1491H946P3L3PPN3N3J00J00J00R9J9J9q2j24k19l56m34n15n45n44n47n47m92m51m02l19l07
1487C725k67k18j77j13j12q9r0l4l4j4j3L9L9M3M3L6J04J14J14J54J54K02K02K76K76L79L78
1483E117M81M81N01N02M86M87M59L91K82K13J03k1p5j16j62j62j64j63j15j15o7o7r2r1j67
1479G926k34k64l33l94m62n04n03n14n14m63l95l64l63l33k65k35j94j51j51j18j18j18j19
1476H17n7n7l7l6m6m6o6o7MMj6j7k6k7k7k6ooonk7k6k7k6mnk4k5K0K1%%nnnnrqrqOPPPk4k5
1469E2k5k4L8L8j0rJJJJk3k2J1J2J8J9lkrqJ2J2%%J%%J%%mmk4k5mnmnOONOj3j4j2j3J2J1J2
1462A4J2qqJ2J2nnonqqJ1J3mmL0L0k7k8OP%%K0K1%%J%klJ9J8J3J4J4J4JKL5L6KKKKJJK1K1
1455B86J4J3J4J3K3K3LLJ5J5onK2K2M2M3K1K1K1K2J0J0J1J0N7N7mnK7K7K7K7O2O1K7K7K8K8
1449A112K7K8M8M8K7K8N8N8L7L8M2M3P7P7R1R2P2P1Q8Q8Q8Q8J13J14J62J61J76J75K43K42
1445C812L39M21M74O11O97P80R22R21R43Q61O37L36m6m01o24p60p58o77n16l79j51M1K36L72
1442H091N34O72P34P34O76M84J71j84m83o75p34p34o13m21j56L5K57L93N57O39O80N97M47
1438A1701J46k51o08q19r01q38p57n96m05k24l2J35L26M78O14O26O26N27L35K3l88p78j024
1435G916j088j088r65q28o80n43n04l67k97k16j76j76q2q2j02j02o8o7m1m1m1m1j3j3o1o1
1431A73nmk5k5k1k2k1k1J5J5J6J5j2j3j2j3l3l3J5J3j1j1j1j2kkJ8J9RRJ0J0k6k4K2K2nmm
1425InqqrrJJk0k0K2K2j2j2noJ5J5J%JJj%K0J8J2J1rrj5j4NNK5K6rrnnnnJ5J4J5J5j6j6j6
1418B1j6qj0rrJ1J1rj0J8J6llMMMNK7K7k1k1j9j8J3J5J0J0j0j1K0K0k8k7J4J4J4J4j6j5NN
1412C9j0j1K4K3MLMMK6K6qqj8j8j8j8qqJ2J3ononRRj1j2j0j0rj0RQRQjjkj%%J%%%%%lmlmN
1405HONNMLj7j7NNK6K6J5J4noK0K0%jj6j7NMMMj6j6k3k2kkK5K5j0rK9L0l2l2%J%Jllklmmm
1397B4mQPj3j3J0J0j0j0LKLLJ3J4qprrrqJ6J7ml%%k0j9poM1M1noonmmmmLKj8j8J7J7J7J7q
1390D4rqrqqJ3J3j3j4K1K1j9j9KKRRRRqpJ3J3lkk3k3nmnnj1j1j0j1K0J9J9K0j%jjooonj0r
1383b4j0j0QPQPJ2J1J1J2l0k9MM%%J9K0jjK0K0j8j7j7j7LLJJJl9k3M5L7mj0rQJ0l1L6K8j2
1376C4k0j8kkjkj%L3L3NMj6j7j3j2PQJ7J8L6L5J5k5n6L9JJj3j4j9j9k0j8RJ0L1L1j2j2QQo
1370F5nk6k7J9J9jkj5j5J9K0kjjknono%%K0K0L4L3%jlmJ8J7K7K7k0k1l5l4J3J3KKJKj5j5j6
1363H8j5K3K3LKrrrj0J6J6mmk2k2J2J2QQj3j2k7k6PPNNNMJ1J0l8l7K0K0j%qrJ2J2%%j%mmJ6
1356F1J7J4J4k1k0k5k5K2K3j4j4PONNMNj0j0J1J0QQPQ%%%%J7J6lmj4j3j4j4KKKJ%%K0K0RJ0
1349A33j1j1llJ8J8jjjjrrK6K5J9J9j5j5j2j1K2K3QRK9K8rj0rj0J8J7llj2j1K2K3RRL0L0o
1343C59nnnK8K8K8K8j9j9K9K9J0J1J1J0J9J9J8J9NMNMnnJ5J6L6L6L7L6L1L2L2L1M4M3M4M3
1337A077M0M0M0M0M8M9M8M8M1M1Q9R0R9J00P9Q0J08J09J70J71K02K02K03K02J88J88J95J13
1333D100J01J9pm7q9q9j26j26j19j19p1p1n4n4K2K1M1M0O1O1J25J26J73J73J46J45J46J45
1329D673Q0Q1M6M6J2J3qqQRM3M3N7N7J13J13R6J5Ql3j00j00j50j50j74j74j06j07j22l9oL5
1325D271P4P4J25J25K42K42L04L03L55L55L49L49L08K27J38N7n3j90k83l66l92l92l92l92
1321E438l67k85k35j95k14j74p1l0PM8O2O2J21J22J69J69J54J54J06J06K3K2n2n3j15j16j15
1317D741j16n8n7k4k4j0j0J1J1n5n4j02j02j48j49j82j82j45j44j44j45r6r6m8m9J1J1L1L1
1313B707Q9Q8Q9Q9J21J20J01J00L6L7o6o6j35j35k11k10k16k16j95j96j77j77j16j16q6q5
1309A174n1n1o3o2j4j5n0n0j7j6j1j2RRjkkkPQQQQRQRmlJ8J7K7K7K6K7L0L0RJ0N2N3L2L2K6
1303A247K7M8M7L2L3N3N2M5M5M5M4O6O5J00R9R5R4J15J15J51J51J51J51K14K15L03L04M09
1299D516M09M84M84O08O08O02O03N72M89M30L48K03O6j5j52k74l56m39n76o12o12n97n97n70
1295E622n29m36l53l29k46k07j67j23j23p2p3j1j2K3K2O6O6O5O6J00J00J21J20J72J71J95
1291D228J94K36K76L27M08M60N01N99O81P66Q48Q97R38R12Q71Q01P19N97M06K41N1j64l55
1288A5438n47p38q51r33r95j076j083j043r73r32q19p37o10n28m41l60l30k48k18k17j38j37
1285A484r5r5r5r5p9q0n9n9m1m1m2m1j4j5j4j5j6j7j6j7k8k8pqrrrrjkjjkkJ9J8J2J3J2J2
1279E08J4J3J3J4nonnK9K9L0K9K2K3JKK9K8K9K9K6K5K5K6N5N4K1K0K9K8M8M9M0M0M0L9N1N1
1273A488N1N1L6L5N6N6N4N3P5P4N6N6R0R0J01J01J22J21J22J23J42J43J72J72J92J92K77K77
1269D578L57L58M16M98O09O91P78Q60R57J039J021J020R71Q89O92N01K42N0j01k91n00o92
1266A4943q83j020j102j183j174j092r89q52p25o42n37m55l95l14k39k38j53j52j19j18p7
1263B484p7k9k9qpqqL3L2L3L2Q8Q7J08J08J71J72K30L12L74M15M56N38N99O40O78O78O11N28
1259I241L63K26J09k8j62k43l65n01o36p18p74p75p36o95o00n19m34l53l01k59k22j39j36
1255A343j37j30m7q0q0p5p4k9k9n0n0l1l1j1j1p2p1k4k4kkk3k2j7j7j7j6%JJ%rrrrooK8K8
1250A81KJJKOPj4j4pqppk3k2J1J2qqpqnonoppppRQRQ%%j%j3j4j3j4QPj3j3K6K5NNj1j2j1j2
1242B3QPk6k6rj0J1J1J5J5J6J6j5j4L3L4l3l3j2j1JLK3K3MMMMkkkkj0j1j0j1POPOpoppK5K5
1235F5MMl5l6k%j4j3j4j3j2j2K3K2kjkkRRRRKJJJkmmlMNMMLLKLk8k9J9J9MONNk2k3kkj2j1
1228e5RRK0J8j%ooonPPk8k7L0L0mmlmllJ4J4no%%%%%%%%j1j1J0Rkkk3k3PPPOjkL3L1rrrrR
1220@Rj0j0J0RJ0J0j8j7LKKJJKppqqj2j3QQKJKJJ5J5J5J6k1j9k1k0J0J0J0J0j7j6L1L0j0j0
1213aj0j0j5j5L2L2PQQQNMNMK4K3LLk3k3J0J1j2j3j2j2k2k0L9M0k6k6ooj2j1j2j2jjJ9J8O
1207HPOPRJ0j1j1J3J3ppj7j7MMPQj3j3KKKKj7j9J6J5j3j4j3j4JKK1K2lkk3k4j0j0j1j0JJJ
1200i5JK7K8ppRRj1j2%jjjj3j3PPLLKLj1j2K3K3LMLMj4j4j4j4J%K0K1J1J0J0J0kklkJ3J4k0
1193@j9k0j9K9K8J3J4J4J4k2k1jkJ4J3ppJ8J9kkj3j2QQj2j2j2j1opJ4J3KLK3K4mmnmj2j2Q
1187C1Qk9k9NNpqJ4J2J7J8mlk3k3J0J0j4j5OOLLKLJ8K0j5j5J4J4J5J4j7j6MMkkklRQRQrrJ1
1180E6J1NMj5j6nmJ5J6j0j0J0J0JJJKonJ5J6J1J1k3k4noooJ3J2k1k2RQK9K9k9k9MNJ4J4J4
1173I4J4j7j7J7J7j2j1QR%jj%rrrqOPOPKLKLKLKLpqppQQj3j2K5K6NNoonoK4K4j0j0k0k0J4
1166A13J4J9J9jkRRk5k5K5K6K5K5l7l7J0J0J1J0j0j0K2K2K2K2j3j3K1K2rqqrL4L4%%jjL3L2
1160C80J1J0j0j1L3L2kjNOK6K6J6J7J6J6M1M0K0K0L0L0RRM3M2K2K2M7M8J3J4J9J9L9M0M1M1
1154A219M1M1M2M1M1M1N9N9N8N9Q3Q3O2O3Q1Q1J28J29P9P9J00R9J43J42J76J77J98J97K64
1150D065K63L20L88M34M74N35O04O31P00P45P45P82P14O31N49M10K18J02l5j79l69m94o30
1147A1603o99p40p84p85p39o57n98n16m55l72l26k44j82j82r9r9l7l7lkM5M6R6R6J72J71K17
1143D890K16L06L87M26N07N38N78O11O92O67O25N51M68L64K28P2j20k29l66n23o05p33q15
1139H735q36q36p83p43o82o00n30m48m14l73k93k12j95j94j70j69j12j13p8p8o4o4o5o4n7
1136E62n7k3k3k5k5k6k5l2l2l2l2k6k6nok9k9NNk5k4RRj6j5PQk0K2K4n8ppj2j2%jj%J9J9j4
1129B4j5k8k8rqK7K7PNkllmJ%k0k0J6J5nnnnnnqqqqLMj7j8J7J6J6J6j4j4L4L3PPk6k7J4J4
1123a5J4J2j2j3QOqrJ1J1k8k9qqJ7J7lmJ%J%qqqqL0L0nmj4j4OPnnmnJ7J7lmJ4J3ooLMMKj3
1115a2j4j4j5LLLLJ0J1J0J0rqrrL7L5LKj9j9JKj3j3PPnmnmK4K2MLj2j1j0j1RRk3k4J1J2J2
1108a0J1LKKKqpqqJ5J4J5J5MLMLqrk9k8pqJ2J3l2l2K9L0J4J3ooooJ4J4LKj7j7J3J2J3J3kk
1102C2klk3k2K4K5LLj7j8J%j9k0J1J0L0L1j2j2QQJ5J5j9j9K2K2j2j2QRj2j2%%L5L4opJ4J4
1095A27j9j9KJj7j7L0L1rrJ1J1KJK2K2J%JJK1K1j3j3J3J3J3J3%jK0K0K2K2K3K2MNK5K5J0R
1089D47N8N7j5j5L2L3N1N1LLK3K3K3K3K9K9L0K9J3J2O1O0L3L3L3L2M2M1M1M2O9P0onQ5Q6N1
1084A707N1P7P7N6N6M7M8Q2Q2Q8Q8J09J09J05J04J26J25J67J66J67J67K81K81L02L42M12N49
1080E971O90Q26R84J174J348J484J492J491J374J237R35M16j51q35j419j828k027j944j668
1077I550j313j015p70n69m32l23k40j34n1l9m0K3J05J50K33L12M47N44P35Q99J036J188J325
1074A1621J378J379J294J104P41K77l35j018j559j914k009j928j698j398j071q24o44n07m00
1071B489l19k78k37k16j76j40j40j04j04j11j12n0n1l3l2l3l3k8k9m8m9j8j9LKj9j9k0j9r
1067D8qk9k8j9j9K9K8qj0rrjj%jJ1J2J2J0j3j5J9J8kkkkK8K8ool1l0J6J7j7j7j7j7JKK1K1
1060Bk2k3K5K4k4k6RRj4j5j5j5J8J8j6j6mmJ7J6KKK2K2jkjjJ0RJ0J1j%j%J1J1rj0klkklkk
1053A2kj3j3PPj8j8j7j8K8K9k0j9OOK6K6nnno%j%jJ7J7lmj3j3POj5j5j6j6PPk8k7j2j3K2K2
1047h4LKl1l2J4J4J3J4j0j0J0J1%%%JmmlmKKKKmlk4k4QRRQJ7J6j8j8J%J%j2j2j2j2J4J5J4
1040a19J4klJ8J9j2j1j1j1%J%%kklkj0j0J0J1K0K0%%lllmlmJ7J7l9l9L6L6RQk5k6poppJ4J4
1033a10J4J4j0j0j0j0ooopONNOj0j0J1J1lmJ7J8J3J3ppJ1J1j0rPPj3j3onooj8j9J6J5J3J2
1027i6J2J2jjk1k2POj4j4J0RJ0Rk1k1J3J2MMLMJ7J7j8j7k8k7OPK1K2j3j2OPOPj1j2j1j1LM
1020a33K4K4j2j3RQK1K1k7k6QQK9K9l2l1j1j1J5J4oonnmnj3j2QQNONOj7j6J8J8j7j6MM%%K0
1014a06K1lmllk4k4llmllmKKKKJ7J8llLLj8j7KKLKJ0J0J0J0J0Rj1j1j1j1RJ0J5J5J5J5rj0
1007g4l0l0KKKK%jK0K0llmlNMj6j6J0RJ0Rk8k8OPMMMNQPQQj7j7MMQQQQLKj8j7kjjjNNONnn
999i8J6J5k1k2jjJ%JJPQQPQPQQmnmmj1j1j0j1J5J6nnrrJ2J2rrJ2J1%J%%OPj4j4POPOk9l0L1
991i2L2PQk6k7ONOOMNNNj9j9KKjjJ9K0J8J8j7j6pqqpjjjjj8j7LKLKLKJ1J1J1J1JJk0k0PPP
983g7PllllnmmnK0K0%jj4j3POL6L5J4J4k1k0%jRRj1j2j7j7j7j7J8J8l0l0nnJ6J6K2K2j2j2
977g3ppppJ9J8J8J8POOONOOOj9j9k0j9qqqqJ3J2qrnnnnmmmnk0k0J4J3J9J8lkj1j2j1j2OOO
969a27PRJ0J0J0MLMLk0k1J4J4LMl0l0RJ0j1j0RJ0RRJ3J2qqJ1J2J1J1l1l2J6J6j5j5j5j4j0
963a44j0J1J0J5J5ooNOj6j5KJj9j8K0K0K0K0j2j1j2j1j6j6J9J8kkkkJ4J3opj%j%jjj%JJKJ
956a24k0k1J4J4J8J8klj2j2j2j2j7j7J7J7MNMMlkklMLMLllllJ2J1rrklklJ0RRRj1j1J0Rop
949a29poK1K2k6k6J1J0J1J1j3j4K1K0k4k5K3K3J3J2k1k2j0j0j0j0j5j6L2L3nmJ6J6qqqqkk
943a34kjkkkkONNNMMK4K4J0J1k4k4k5k5nnj%K0K0rrj0rJ2J2J2J2oonoj3j3PPqrJ2J2J1J2r
936a19rQQPQl2l1L0K9PPj4j3qqqqLLKLLLLLRRj1j1NONOj2j1j1j1rqqqJ9K0j5j5J2J1J1J2j
929a29j%jJ0J1j0j1j7j8J6J6ppppj1j1RRPPPOlmL0L1J2J3qqj3j3j3j3nmnmmnmn%jjjK2K3K
921a20Jj3j3QPJ1J0j1j0LMj7j7KLKKK5K5MMj7j7J6J7l6l5J2J3J0J0J1J0kkk2k2ooK8K8j0j1
915a21j0j0KLKK%J%%J8J8j6j6OOj4j5qrJ2J2K5K6rrnonnJJJKj8j8J6J6llkl%Jk0k0NONOK0
908a32K1k7k7J5J4J5J5ppppJ5J4opJ2J2rrj0j0j0j0J6J7nmKKj9j8mmJ6J7OOj4j4MLMMJ1J0
901a16J1J1ONj5j6POOOk4k4llmlmlj5j5J9J9ppJ4J3jjk2k2J2J3J2J2J4J3k1k1%jj%J3J4op
894a36QQQQj1j0J1J0j7j8j8j7NNONJ8J7j6j6nmnmJ5J4j9j9J7J7J7J7mlllJ4J3ppKJKJj1j1
888a25RRj8j7j7j8K0J9jjRJ0J0J0j4j3PPj3j3j3j3%%%%ooJ5J5kkkk%j%jKKl3l2J7J8J7J8l0
881a79l0J8J8J8J9kjK0K0K0J9k7k7PPkkkkoopoqrqrJ3J3k2k1LMK4K4j0rrrKKKLJJKJQQj3j2
873a61J1J2J2J1kkk3k2LKLLj2j2QRK2K3j1j1j3j2QQmmlmjjjjJ%K1K1l5l6K6K6lmlmJ8J7J7
866a03J8opooNNj5j6LKLKj0j0j1j0K3K2LKkkkkk1k1j%kjkkllllJ4J4ppqqrqj6j6NMJ2J2J2
859a88J2POPPJ5J4oomnnmLLLLJ2J3k2k3PPOPppJ3J4qppqooJ5J4lmJ6J7k2k3jkKKLKJJKJk0
851a59j9K8K8LMl1l1J0J0RJ0OPOOJ0J0j1j0j2j2RQLMj7j8J1J1J1J1ppppJ7J6mmkllkKLKKk4
844a33k5mlM7M7j%j5j6j5j5%JK1K1j3j3PPL2L2klk6k5k6k5rrJ1J2llJ7J7mnJ6J6NMNNj4j5
837i9POklklJ4J3ppj8j7L0L1j7j6j6j7MMLMJ6J6J6J5j6j7j7j7K9K9j8j9%j%%J9J9jkk1k2J2
831h8J2J0J0k4k5QPj3j3RJ0M4M3qqrqj3j4j3j4j1j1RJ0K2K2j2j2NNNNQRk5k6jjL2L3rj0l0
824h0l0MLMMnmJ7J6KLKKllJ8J8j2j2j2j2J4J4k0k1K5K4K5K3j1j1RRj1j1j1j1rj0j0rQQQRp
818e6pJ3J3j7j8LLJ5J6nnl1l2J7J6JKJJMNK4K5rrrr%JJJOONO%%%jnonnmmmmK2K3KKm3m3NN
810h7J3J3qqKJj9j9J4J3J4J3qqqqmmL0L1K2K1j1j2qpqpPPj4j3OPOPLMMLj4j4OOk2k3J2J1K5
802c3K5rj0nmnnOOOPJ4J3L5L4k7k8ppQPQQj2j3K2K2PPk7k7J5J5J6J5k2k1J3J2jjkjmlmmJ7
795E6J6mmRRRRj2j3RQKKKKrqJ2J3J0J0J0J0KJK2K1LKK2K3ppK7K8%%J%K2K1j2j3K3K3K2K3K
788C97KJKONOOL1L1L1L2K5K6K5K6K9K8QQL6L6L6L6L5L6L6L6N9N9Q0Q0R4R4R4R4J43J43J43
783B095J43K03K04J69J69J38J38J17J17O5O4K3m5j04j73j86j87j90j91j70j70j18j19r8r8
779A796n8n9l8l8j6j5NNklL2L2M6M6M6M6O4O4J12J11J52J51J51J52K13K14K14K13J98J97J01
775D132N9K1m8r1j32j23j23j26j25n9n9J7J7Q3Q3J31J32J65J65J08O7M4l9j11j12j82j82k03
771C509k02j69j69j35j35o5o5m4m4kkM7M6O5O5J22J63J27K10K32K73L09L08L57L56L23K82
767E762K29J48J14L3l1p2r4n2o0o1p7j19j26k09k80l20l37l37k83k83k43k44j85j04j02j02
763B565n8n8LLLLR2R2R0R1J65J65J89J88K09K09J89J88J63J63P9lm0j23j63j64j69j69j28
759C774j29o6J5J7R9J06J06J44J43J07J07L8mo4j46k05k06k31k31k28k29j80j81j51j50j17
755B138j16p2p1l7l7l8l7mlrrK6K5L5L5L4L5J04J04J04J04J36J36J71J70J70J69K13K12J49
750C837O6O4j7n8j39j73j74j96j97j96j97j76j77j01j01q1q2m7m7lmmlJ5J5J5J5K2K1K2K1
746A940RQK9K9O1O2O2O2N2N3N3N3O5O6Q5Q6P0P0O9P0J01J00J00J01J26J26J06J05J78J78K01
741D476K01K12K53L05L87M14M97O02O84Q45R81J101J238J332J372J337J201R93O38K05l15
738A8959p99j154j345j386j286j149r79p88o10m72l40k03j13K4J40K77M50N87P51Q88J014
735A2466J054J086J086R44O98L38j27n86j051j420j611j617j479j350j104r27p91o09n28m23
732D049k87k31j49j60j18o1o1l0l0NNJ4J4L4L4M6M5M5M5N3N4J01J01J19J19J19J19J08J08
728D210J08J08J61J60J61J61J59J59J79J80K29K29J94J95K68K68L30L30L73L73L52L52L32
725I571L31K89K47J97J16J07O6N0N0R5R5J77J76K47K88L35M16M55M96N49N91O27O69P18Q00
721A7758Q89J026J149J341J617J863K262K726L389M236N225O291P337Q402R143R334Q815P531
718A00334N058J041l447p356j0001j0944j0761r847q439p004n764m740l883l160k492j959
716A6636j559j244r84q07p35o66o13n73n50n50n50n09m73m73m17l47l30k62k16j76j24j25
713D353r9l0ooJ9J9O4O4J05J45J47J88K19K19K46L15L87M28M25M94N33N34M81M82M27L05K12
709A0670R0p9k29l53m75n59n58n84n84n13m73m21l53l23k54k07j66j65j65r8r7r8r8p2p2k5
705C739k4%%%%K3K2N7N7Q4Q3J07J07R6J38J80K22K08K09K66L07K97L38L86M54M98N66O37O38
701I695O58P00O87O18N50M26L14J91O2o2j34j75j98j99j99j30j21j22r8j39j94k62l31l71
697A1166m48n16n64o33n95n95n52n10m79m38m09l68l61k94k45j76j85j85j50q3o1o1n4n4l6
694C114Nj9j8j5j6N3N3P0P0M7Q7J17J16R9J39J62K02K02K03K70K70L43L84M14M14M57M58M60
690H141M60M51L83K79J84J45K1j11k34l24m20m89m90n15n16n10n09m07l66l16k76k35j68j16
686D062p5n3n3m5m6k3k2l9JK4O5Q4Q5J27J28J94J93K35K34K60K60K19K20J69J69J25J26N3
682F677J2j0n1n8n8o0o1n0n0m8K1K3K3R6R5J06J06J06J05J20J20J20J20J77J78J98J98J88
678H343J89K84K84L08L09L49L50L93L93M89M89N38N38O10O09O85P25P88Q70J030J166J320
675B1059J566J791K146K590L165L912M924O074P305Q521R586J0110R918Q918O651K353l086
672A07503p824j1295j2590j2399j1331r554p765o207m966m011l231k603k035j572j253j007
670G860q14o78n50m68m34l93l11k70l26l26k82k82k41k40k19k20j46j45j05j05j17j17p6p6
666I19n3n3n3n3l5l5l5l5j9j8j8j8j3j3j3j3rrj0rrj0rrJJJJpoooK0K0M1M1M1M2M1M2R7R7
660H29M9M9L7L7k4k5r7r8r8r7n2n2n2n2k6k7k6k6mnmmLLMLkkkkJ2J3J3J3rqk8k9L5L6L5L5
654C55K6K5K6K5K9K9K8K9PPk7k7n6n7k2k2o1o0l9m0qrqql3l3%JqqJ2J2j6j6j6j6MLLLJ8J8
648G0llk4k4K3K4j3j2j3j3K5K5k3k4MMMMKJKKj2j2K2K2popoJJJJj4j4j3j4JKJKPPQQjj%jr
640Errr%%J%mnJ6J4LLLLK5K6NNj4j4POopoorqJ3J2J0RJ0J0L6L7KKppJ4J4JKKKK2K3k6k6j1
633A60j1j0j1j8j9j8j8J9J9jkLLKLj0j0J0J1lkkl%J%%J%K1K1K4K3j0j1ooooJJK2K2J3J4pp
626A97j4j3K1K1j0j0rj0j1j2RQnmk6k5%JK0K1J5J4ooPPPOjkkkLMK3K4J3J3k1k1nmJ5J6K5K6
619B97NNJ7J8J8J8j3j4j3j3OONOj8j7j8j7J2J1J2J1KKKKJJJJJ2J3qqJ7J8j7j6NOOOk9k9qr
613B95K9K9nnjjkjJ1J0rj0rrrrK6K7qqmmJ7J7K0K0M1M0K2K2K2K2O2O2O2O2M9M9K9K8qrm2m3
606H77k9k9rqn7n7k3k3k2k2k2k2pppqk4k5k5k5j8j8KKj8j8j8j7nnnnmnnnllllJ7J7mmJ%J%
599C00OOj5j5MNNNLMLLRRQRqqJ2J2lmlmjj%jqqJ3J3J3J3pqK0K0K0K1lkkkK0K1j4j4K1K1K0
592E08K1OOONlmJ7J7PPM2M1J1J2J1J1J3J4J3J3J9J8J9J8J1J2J1J1J9J9J8J9ONM0M0L4L5L4
586A162L5L0K9K3R2M9RpL3L4L3N7N6N6N5N5N6P5P5J23J23J06J06J40J40K33K33K34K33K94
581C972K93K92K51K35J68J21N2j6q5j26j26r8r8p0k8qO1Q6Q6O2O2L5l4j16j85j89k30k66k66
577C835k06k07j87j87j40j39p7p8n7n7n8n8k4k3k6k6nnL1L0J0J1M1M2O2O2P6P6N6N6N0N0N1
572B979N0P1P1P5P5Q3J51J60J61J82J83K59K58K67K66K17K16J56J14P1Lm0q0o2o2jkO0O0J28
568F069J27J75J75J57J58J04J04L4m8n0n0o4o3j12j11j72j73k20k20j95j95j65q4m5m5RQJ7
564E125J8llj19j20k08k08k76k76k29k28k10k09j48j48j20j20n8n9l9m0l9m0opK8K7M1M1K1
559B388K0P1P0P1P0O5O6J7J8J1J0J1J1L9M0P3P4Q9Q9R1J73J99J99K05K04K54K53K53K53K03
555E590K04Q2Q2J8o5o6o6mmN8N7J01J00J48J48J15J15M5l6j19j19j72j72j89j89j74r2n5n5
551E286l0k9J5J6P7P6Q7Q6Q7Q6J33J32J33J33J26J27J47J47J60J60J60J61K04K04K25K25K41
547H575K40K89K88L14L13L48L47M14M14M89M90N77N77O57O58P22Q03Q33R97J137J300J479
544B2261J752J992K374K758L140L649M033M381M545M514M241L667K848J881R52J80l11n89
541F8268p52q69j032j519k229l083m012m760n142n306n033m639m147l581k978k524k140j731
538A2791j458j219j055r24p59o42n61m52m53l66l65l18l18k44k43j83j82j55j54j21j20q9
535B410r0q9q9n2n2l1l2l2l3KKj8j7LLK5K4K5K5M7M8K7K7N5N6N5N5P9P8M4M5M8M9M9M9M0M1
530B876O0O1M8M7M7M8M2M3O2O3L0L1L0L0O8O8O7O8Q4Q4O4O4J00J00J61J61J57J57J78J77K12
525E488K11K11K11K80K80L44L44L83M24N10N93P09R00J109J300J584J830K125K370K568K651
522B6425K699K616K366J900J167J55j080k310l209l728l729l429k961k441j964j554j219r73
520H731p61o23m91l54k95k14j55j14j06o4o1j9KLN3N3O2O2J09J10J18J18J39J39J67J68J68
516F945J68J85J84J85J85K25K24K45K45K82K83K82K82L30L30L47L88M04M87N11N53N97O39
512A4506O93P76Q63R45J048J184J326J463J678J924K188K489K912L377L921M550N140N606
510E6589N990O127N854N171L957K180L9k175m216n829o844p253p124o659n948n211m513l885
507B6250l259k795k378j968j658j465j285j094r67q31p00o18n53m71m06l24l26k85k55k54
504D358k52k52k03k03j55j55j34j33j13j13r4r4o0o0l2l2KKJ0J1J5J6kQ0Q4J24J37R6R6J78
500C122J84J84J90J89J92J92J41J42R7N7L4m7j00j41j89k29k65k64k88k88k26k26k06k05j45
496A905j44j24j25r0r1r1r1o5o6o6o5n9n9n9n9m8m7j3j4k0k0k0k0l0k9rrj7j6j6j7lmk4k4
491B51j0j1j1j1qqJ3J2JJk0j9kkkkrrj0rK8K8k0k0nnnnKLKKJJ%JRJ0k5k5%%j%j7j6J7J8mm
484A05nmJ0Rk5k5llL1L1nonn%%L4L4rrrrNOOOJ4J4J4J3j2j2L5L6NNK5K6K3K2j2j1L0L1J0J0
477D21jkkjJ7J8j7j7m2m3k2k3j4j4l5l4j6j6j6j5lllll1l2LLJ1J1j0j0MNNMk0k0J%JKJJLK
470D8LLKKLKj4j5j4j4j3j3K0K1j%j%J5J5j9j9j4j5J8J9J0Rj1j1llklJ1J2J1J1j9j9JKPOPP
463D2k2k2jkK1K2K2K2l2l2j1j1K5K6NNj9j9JKOOPOj1j1j1j1J7J8J8J8OOOOpopoJ%JJRRj1j2
456G0RRQRLMLMj7j7MMJJJKQRj2j1RRRRnmmmjjj%J4J5ooJ6J6nmLMLMJ6J7j8j8rrJ2J2j2j1R
448A51R%%K0K0L8L9j0rQQPQooJ4J4K6K6ONK7K8K7K7K5K6K6K6LMMMk6k5k6k5j4j4j3j4j3j2
442D13j3j2k4k3llj3j4K1K0J5J4L5L5LLMLK3K4K3K3L5L5J4J4k8k9k8k9j6j6n0n0opoppqpp
436C51rqJ2J2onooJ3J3pqRRJ0RMNMNL4L3L4L3L9L8L9L8L8L9L8L9N1N1N2N1N0M9K9K9n9o0k6
430A060k6m3m3o4o3o2o1o2o2l1l2l1l2l3l2JKj1j1l2l2qqqqJJl3l3llllmmmmLLK3K3k3k4k
423A79lj8j7J7J6noJ5J5J1J1rj0MLLMLLLMQRQQMLLLkkkkj3j3j3j3J1J0j0j0K9K8K9K8J2J2
416C48k3k2mmJ6J6jjjjj3j3PQK4K3K4K4J%j9k0L4L5%%KJK2K2j3j4QPM4M4K3K4KLKLJ4J4po
410F33J1J2J1J2j3j4PPk7k8qpoppoNMNMk3k4mlJ9J8kkl2l2J6J6NNONJ5J5onK6K6ONnonoK1
402F37K1K1K1jjL3L3K2K1j3j3K2K2K2K2J5J5J4J5K1K1K0K1l1l0LMpok7k7L1L2llkkJ9J9J4
397I95J4J4J4J4J3ppj5j5K0J9K6K5K6K6K4K5K5K5LLL7L7M4M3M3M3QQK9K9L4L3J4J3M4M5M4
391A815M5L5L6N6N6O3O3M2M2N5N6N5N5P0O9P0P0O4O5O5O4Q5Q5Q5Q5J08J09J09J09J23J23J23
386D155J24J30J30J50J51J60J61J82J81J83J84K04K03K46K46K46K45K46K45L07L07L72L73
383I131M09M09M89N30N68O50P69Q51Q57Q58Q73Q73P13M12J26k30n43p35q17p35o36m44l19
380A4059j28j6J22K29L12M04M86N51O34P39Q21R56J093J263J400J643J834K131K486K865L330
377C7214L828M402M970N434N776N913N695N176M096K593P93j257l218m885o097o779o958o766
374D9930o307n679n012m329l693l173k744k333j946j700j441j250j091r55p94p12o20n37m49
371E165m48l49l48k60k59j95j96j95j96j29j30j09j09r0r0q9r0n9n9n9n9k7k7m7m8j9j9j8
367A442j9mlllmnL1L0poJ4J5K8K9K9K9KLLKj0rl1l0J1J2J1J2QRRRK4K3MLN3N2N2N3J4J4J4
361A910J4L2L1L1L1N1N1N0N1N9O0L8L9O5O4R9R9O2O3O2O3R3R4J14J14J09J09J09J09J04J05
356D085J25J25J37J38J37J38J49J49J49J49J78J79J78J79J83J82J63J62J86J86J87J86J90
353G820J90K24K24K40K40K74K75K94K94L42L42L66L66M14M13M99M98N60N60O42O41P14Q50
349A7282Q58R40J046J127J250J332J479J615J755J946K137K328K475K612K754K754K753K671
347E1114K465K164J765J246O07k1o86j369j902k421k864l111l257l339l329l192l021k775
344B8074k564k317k106j914j722j530j349j213j065r84q78p96p21o39n64m82m68l87l52l52
341E671k80k81k05k06j46j46j46j46p0p0NOL5L5Q3Q2J43J43J43J42Q1Q1K4j8j02j83k07k47
337D221k59k60k62k62k24k25j76j77j36j36j16j16j00j00r9j00j07j07n9n9p5p5n4n5m6m6
333G90m5m6l0l0l1l0%jl5l4%%%%JKk0j9k9l0NMj4j5j4j5k4k5mmj3j2j3j3kll7l7j4j4OOJ4
327A75J4k0k1k1k2jjPPPQl7l6K5K6ppppoopoj3j3K1K1NONOJKj9j8k0k0J4J4%%K1K0J8J7ll
320A19nnonj2j2j1j2J0J0J0J0NNNNJ0J0J0J0NONNK1K1K2K1RJ0RJ0J0J0J0J1rqrqj9j8j9j8
314B28NNNNk4k4lllkllJ5J5J5J5K2K3M2M3jjkjk9k9k9k9k9k9l0k9k2k2k2k2j1j1l1l2j5j5
308f8ONK3K2j1j1nonnj7j7LLonJ4J5j9k0J4J5LLLLlkJ8J7MMj7j6K9K9nnj1j0RJ0J2J1m8m9
301h6%%%%j7j8LLOPPOk7k7k7k7ONONJ9J9J9J9llmljkjkjjkjNONOkkkjj1j1J0J0MNj6j6J1J1
293a11J1J1J7J8j8j7noooJ7J7J6J7KKj8j8JJ%Jj1j0K3K3J%J%rj0J1J1PPPPRQj0j2%%%JJ9J8
286A7J9J9MNNNK5K5M6M6j4j3PPkklkQPQQNOONJ0Rj2j1J2J3l6l5oooo%Jk0k0k4k4lmj0j0J1
279G0J0J9J9jkk3k2J1J1klllj6j5MNj%J9K0J5J6nnK4K5K4K5k7k8ppllllMMMMk4k4lmj7j8J7
272G8J7j3j3j3j3K0K0J9K0J4J4ppnoJ5J5J7J8J7J8L8L9L9L8L6L6JKm5m5m6m5j3j4j3j4j5j5
266A89NOj0j0l0l1LLLKj2j3j3j2j4j4OOJ1J0J0J0j7j7j7j7J4J4J4J4JKL5L6POPOQQj3j3on
260A72J5J4K5K5NMONONm0m0m0m0k8k8ppk8k6opNNNNppqqJ5J3j9j9J6J6j8j7L8M0J9K0MMLM
253I4L5L6L5L5j3j2j2j2ook6k7k4k5k4k5j9j7KKj7j8j7j7J4J3J4J4J6J6mlk8k9k8k9mnJ5J6
247i0K7K7PP%JK1K0QQQQj3j4j3j3k3k4llj0j0J1J1j0rj0rJ1J2J2J2j3j4j3j3J%j9k0j0j0j0
241a64j0K7K7ppnnnnLMMMKLKLJ1J1rrKLKLKLKLrrJ2J1k1k0j9j8nL6N5j3m3K6K6j5k6k6qqn
234a84oJ5J5OOj4j4%%J%J8J8j5j6NNNNMNj7j6J0J1J0J1MNj6j5j1j1RJ0%JJ%J7J8mlk3k2kl
227a77K9K9noJ1J1j0rk5k5nmJJJJrrJ1J1ppJ4J3llllj2j2j2j2RQRQqrK6K5K2K2k7k6J3J3J4
220a26J3j4j4j4j3J0J0J0J0j7j6j7j7J9J8kjMNNMk6k6QQJ0RRJ0QPQQj7j6MMj8j9J6J6QRk6
213a49k6NNj5j6J1J0k3k4J1J2J1J1NMMMj5j5J9J9KLKLJ9K0J9K0K5K6qrONONj6j6j6j6mnk5
207a06k5k4k5k4k5K6K5qrk4k5mmnnJ5J5LKKKj2j3j2j3j3j3PPKKj8j9j1j2j2j2jkjkqqJ3J2
200c62JJJJKJJKj0j1J1J0j8j9j8j8onK8K9j1j1j1j1qrrrllmlj5j5OONMNNlllkk6k5mnj1j0
193e62J0J0lllkj2j2j1j2j3j3j3j3J0J0RJ0LKj7j8%%J%k3k2kkPPj4j4J4J3ppj3j3j2j3j3j3
187g69QQrrrrj1j2j1j2j1j2j1j1mmlmlmmlnmnnmnmnrj0j0rnmnmk5k5k5k5klkkJ6J6nnj0j0
179a109j0j0j1j1j0j1OOj4j5rrrrj7j7LMlklkj0j1%
175a283
##$OBSERVED INTEGRALS=	(X Y Z)
(5.7484307411054729187, 5.845098120771073269, 1.1025002216979746805)
##$OBSERVED MULTIPLETS=	
(1, 8.0905085445952256151, 8.1971905812124781221, 8.1406859353173626204, 2.0660882422099935418, 2, dt, 30&comma;34, 1.37268 1.37268 6.97583)
(2, 7.6991445256695634214, 7.8093496117769696241, 7.7442293500103085435, 2.1813615431216728524, 2, m, 51&comma;55)
(3, 6.9526052254495596117, 7.04841326304873661, 7.0005047606100561097, 0.93384178808532447569, 1, d, HN(4')CO, 8.89696)
(4, 5.637812027605223264, 5.7278108934103046934, 5.682908545364625752, 1.0259060997817575078, 1, d, 2, 7.08977)
(5, 4.8955661358716993092, 5.0018534843853803551, 4.9487098101285393881, 1.069959951923828978, 1, m, 5)
(6, 4.7489373697751897652, 4.8421050387139858984, 4.7956371710897656158, 0.95275362391280160601, 1, dd, 2', 5.23118 2.73781)
(7, 4.1593990763428676516, 4.2539920356535230184, 4.2066955559981948909, 0.9804325822816583047, 1, m, 20b)
(8, 3.5416982300124799643, 3.6258181301815484154, 3.5837581800970141899, 0.94484680001164467189, 1, d, 2'OH, 5.24707)
(9, 1.0917727500402516494, 1.1947024810160955521, 1.1531268857699095154, 2.905829008688944004, 3, s, 16Me)
(10, 7.5712486824773215233, 7.6834699163476258832, 7.6109906669164573145, 1.0484488098804491951, 1, m, B)
(11, 7.2900662506575804045, 7.5712486824773215233, 7.4497461378211982108, 10.222427195285456847, 10, m, P)
(12, 6.27544300205104566, 6.3184887683514636691, 6.2851700262031222621, 1.0767395862405872986, 1, s, 10)
(13, 6.1786435855703922826, 6.27544300205104566, 6.2407833260397360675, 0.88591194380290239074, 1, m, 13)
(14, 4.3515797944884671011, 4.4752046530550675385, 4.4058738936728332192, 1.0393562382936243349, 1, dddd, 7, 10.6488 6.74099 4.20091 1.17235)
(15, 4.2594963339615086184, 4.3515797944884671011, 4.3055380642249883039, 1.0540349987155888112, 1, m, 20a)
(16, 2.4879737268919286386, 2.6362846179890908616, 2.5506885047416822943, 0.89418360231707938457, 1, ddd, 6', 6.68979 9.75635 14.7006)
(17, 2.4309622797310761477, 2.4879737268919286386, 2.4533745517292731009, 0.94247243421800264151, 1, d, 7OH, 4.13031)
(18, 2.2068335679940269678, 2.2575586313535200844, 2.2401523101423679307, 2.3470127109795830833, 2, s, 10OAc)
(19, 2.2610770499628483066, 2.4427673377266345689, 2.3440946348712783376, 1.9339297839991647088, 2, m, 14a&comma;14b)
(20, 2.359316610434575523, 2.4309622797310761477, 2.3926353525829164859, 3.1858942015565241412, 3, s, 4OAc)
(21, 1.8269898767357544145, 1.9674817068916434781, 1.8871869066142008542, 1.1146076570875154133, 1, ddd, 6a, 2.36102 10.9307 14.1968)
(22, 1.7707188379795879563, 1.8269898767357544145, 1.8027935924076623486, 2.7953198071304892203, 3, d, Me18a, 1.35638)
(23, 1.7188902496515392482, 1.7707188379795879563, 1.7373487810803625031, 1.2005908549414185948, 1, s, 12)
(24, 1.6262288024383919627, 1.7188902496515392482, 1.6950061402509819519, 2.7003719880469665426, 3, s, Me19(8))
(25, 1.2570728640006130217, 1.3026969490483200076, 1.2693782068999790447, 0.89529677870693491482, 1, s, Z)
(26, 1.2163493090445471889, 1.2570728640006130217, 1.2496680511928881518, 2.7294186492000531707, 3, s, 17Me)
(27, 3.7510643025287371266, 3.8746310104341317171, 3.8111286214407300577, 1.0069871946360322568, 1, dd, 3, 7.03399 1.02579)
(28, 5.7513380307194754693, 5.842917653560570912, 5.7978376865212339908, 1.1025002216979746805, 1, ddd, 3', 8.80064 2.78687 0.977849)
##$OBSERVED MULTIPLETS PEAKS=	
(1, 8.1638718390641376033, 28.420609440063344664)
(1, 8.1562889713393058599, 121.78787989528031233)
(1, 8.1522939273038392827, 216.23290872783229588)
(1, 8.1470704458514742186, 49.924786166967415113)
(1, 8.1356552046914671905, 53.072328588027971819)
(1, 8.1289797759745177075, 252.40912976436905524)
(1, 8.123827286743566134, 155.00833542768052098)
(2, 7.7760308696286282171, 13.761951036860621045)
(2, 7.7622737658589002763, 271.97706946531820904)
(2, 7.7555347576813913335, 28.788243348134987087)
(2, 7.7450798258260284967, 38.72789242809256649)
(2, 7.7379510163541223022, 273.333119168518067)
(2, 7.7324632678179048284, 146.28117234306884598)
(3, 7.015094520900395203, 122.60462897008019922)
(3, 6.9859239675979010187, 126.15174208539366418)
(4, 5.6944921512619632864, 156.38907189884284321)
(4, 5.671130769753564671, 149.47121275861135814)
(5, 4.9685347422370389481, 76.489183221265435009)
(5, 4.9609799427412140105, 78.837413444168475962)
(5, 4.9363598620199899969, 92.690186397817853958)
(5, 4.9288848780200407163, 60.021395118203741958)
(6, 4.8087862965656444914, 113.14464269653066708)
(6, 4.799580505075815573, 106.10503701568818258)
(6, 4.7912621458140023378, 107.47641215960931049)
(6, 4.7822561119235311722, 100.5974845513196243)
(7, 4.2206732935051816114, 187.45422471621080263)
(7, 4.1927178184912090586, 110.24808549292895066)
(8, 3.5924993880332074525, 217.10929962612055988)
(8, 3.5750169721608209272, 199.82297861044654042)
(9, 1.1531268857699095154, 680.1203176878668728)
(9, 1.1250914921885926123, 32.83030444556739269)
(10, 7.6501511741992844762, 15.499054358054504377)
(10, 7.6453473680437662452, 42.07639235639886266)
(10, 7.6405832496416925537, 17.607664049614285773)
(10, 7.6290890105469983951, 26.984620387293904997)
(10, 7.6208093970752308621, 156.14501938374814927)
(10, 7.6129869689638649533, 23.571025965391189771)
(10, 7.6010606052505389485, 50.306565749923315423)
(10, 7.5962092972168955285, 100.75212724635723305)
(10, 7.5915266669958603174, 30.127308327735821791)
(11, 7.5561315890501781212, 9.9066237523687963318)
(11, 7.5397991314027619225, 236.82015916767764452)
(11, 7.527169503583112764, 21.71238633617099012)
(11, 7.5187833972152704476, 70.008278207591928322)
(11, 7.5134245474468590587, 336.24398551916976885)
(11, 7.5021955552225021435, 270.98978733970511712)
(11, 7.4946667704043150593, 51.507635419078759753)
(11, 7.4900339322500606443, 65.307636210639373076)
(11, 7.4847132565456240272, 156.74088920722681451)
(11, 7.4786653431031586692, 329.13405871845566253)
(11, 7.4746878686890632082, 126.92950505773768555)
(11, 7.4517945125478259882, 81.780589600415439122)
(11, 7.4471981068107018231, 134.99845112671516745)
(11, 7.4396202070233963255, 36.419097441352384692)
(11, 7.4246312079637677428, 551.25263878862506317)
(11, 7.41793033925356049, 50.404302571546111267)
(11, 7.4033786175596576484, 161.50391540071834129)
(11, 7.3982942016888388892, 419.45701030700297451)
(11, 7.3808823747701808315, 74.477830021624384926)
(11, 7.3751432851874607621, 198.83891931925472818)
(11, 7.3703387956950363602, 69.260834495861431037)
(11, 7.3614114657965563637, 27.093199878878571951)
(11, 7.3527741575073761737, 119.17595760021752938)
(11, 7.3418790161046176834, 11.306694201401473521)
(11, 7.3293330233805633611, 27.650783225333345428)
(11, 7.3233849928059218115, 2.96484113527248061)
(12, 6.2851700262031222621, 372.87886393586290978)
(13, 6.2690695636498503518, 33.918168919878382894)
(13, 6.2440051803301965805, 77.09329112133872286)
(13, 6.2380962324601654245, 58.546528051447182861)
(13, 6.2119623277187336896, 45.707206492052428359)
(14, 4.4418859109067261315, 39.215545431747173666)
(14, 4.4278957711365443117, 31.3723079689743507)
(14, 4.4196228746254773156, 37.467760127606808851)
(14, 4.4056933403132028104, 73.352033639884439253)
(14, 4.3915954953435170083, 30.145447593665487318)
(14, 4.3836828052247778231, 36.230412036691014066)
(14, 4.3693199664455608655, 26.411773016419825666)
(15, 4.3209127674730831714, 112.8955848247973961)
(15, 4.2928150761098500254, 178.9824063304572519)
(16, 2.6029658758407498986, 35.272725194923872039)
(16, 2.580385874677164626, 34.154550982084685984)
(16, 2.5700634786849909652, 32.648857892730909214)
(16, 2.5531409423648669943, 46.519436936626391343)
(16, 2.5479457181687266143, 33.490461432125080421)
(16, 2.5310765842661488989, 38.222600583780113936)
(16, 2.5209642792072783912, 34.201870611724608295)
(16, 2.4989652847235324096, 33.235330471412432018)
(17, 2.4602554509203589106, 199.66076101118309793)
(17, 2.4464936525381868471, 173.54386940276106088)
(18, 2.2401523101423679307, 1245.5287893821453054)
(19, 2.409448595578293606, 81.412668294348989662)
(19, 2.3612055525962536429, 98.993321022180964519)
(19, 2.3313586593440138728, 120.44970726506421954)
(19, 2.3240645747266430732, 75.256245891224452293)
(19, 2.2943957921111892695, 98.163955345819729814)
(20, 2.3926353525829164859, 1196.2180359397073062)
(21, 1.9341629647433025152, 45.06295977836354183)
(21, 1.9258993414966270041, 34.005452674174200922)
(21, 1.907824293467007104, 10.794885272873779414)
(21, 1.8978833798623657714, 33.965097647905885481)
(21, 1.8875598199555314594, 61.189439816173035069)
(21, 1.8768176306367501116, 25.283104234736196503)
(21, 1.8607555946499372279, 5.9947335908423866613)
(21, 1.8477275086003563942, 46.419793706881442574)
(21, 1.8402577010044725014, 31.980641650731893577)
(22, 1.8050532431237451547, 611.2947066121860189)
(22, 1.8005339416915797646, 409.93392106054278656)
(23, 1.7570150215495401458, 21.478412156749914885)
(23, 1.7373487810803625031, 409.17971506105709523)
(24, 1.6950061402509819519, 967.52581083532697903)
(24, 1.6595475445867329256, 46.420576109638169271)
(25, 1.2693782068999790447, 171.60173090791457184)
(26, 1.2496680511928881518, 968.59594202970527022)
(27, 3.8226831772500529105, 151.50432520264553204)
(27, 3.7994931618494236503, 134.21856949047736407)
(28, 5.8168430646517039762, 94.167316911546961933)
(28, 5.8077159421255624139, 81.025827862334509177)
(28, 5.7873976261159016943, 85.697052050871192819)
(28, 5.7783562122536560324, 76.851812354765854707)
##END=	
##TITLE=	taxol
##JCAMP-DX=	6.0	$$ MestReNova BETA 14.3.0-27283
##BLOCK_ID=	8
##DATA TYPE=	NMR PEAK TABLE
##DATA CLASS=	PEAK TABLE
##CROSS REFERENCE=	NMR SPECTRUM: BLOCK_ID=7                                     
##.OBSERVE FREQUENCY=	300.131378173828125
##.OBSERVE NUCLEUS=	^1H
##NPOINTS=	131
##FIRSTX=	0.89205071200295860123
##LASTX=	8.1638718390641376033
##XFACTOR=	1
##YFACTOR=	1
##FIRSTY=	4.1287959979670736388
##XUNITS=	PPM
##YUNITS=	ARBITRARY UNITS
##PEAK TABLE=	(XYW..XYW)
0.89205071200295860123,4.1287959979670736388,0.0055582710299440273374
1.0345693679453489278,4.0183486885041537207,0.0075609675549068583456
1.1250914921885926123,32.83030444556739269,0.0085765657119275078013
1.1531268857699095154,680.1203176878668728,0.012537937318573741038
1.2496680511928881518,968.59594202970527022,0.0084131465160022303462
1.2693782068999790447,171.60173090791457184,0.013445503558755102225
1.4332153899269011177,11.036102723855295338,0.0099664750723563212687
1.4606770412583636176,4.5065231941242167579,0.0074138157083852729984
1.5877902716390812632,4.704629455586450959,0.012491120534549687154
1.6595475445867329256,46.420576109638169271,0.011102232449856114238
1.6950061402509819519,967.52581083532697903,0.0082655624752399192018
1.7373487810803625031,409.17971506105709523,0.0075569812763034279954
1.7570150215495401458,21.478412156749914885,0.024871801503812501072
1.8005339416915797646,409.93392106054278656,0.0068553743501319546957
1.8050532431237451547,611.2947066121860189,0.0089418454477540008918
1.8402577010044725014,31.980641650731893577,0.0064627959690803978704
1.8477275086003563942,46.419793706881442574,0.01335612544996857276
1.8607555946499372279,5.9947335908423866613,0.0057695392501401696062
1.8768176306367501116,25.283104234736196503,0.0074636038467159526374
1.8875598199555314594,61.189439816173035069,0.015255075837438274861
1.8978833798623657714,33.965097647905885481,0.0093743662288496894947
1.907824293467007104,10.794885272873779414,0.018232681129488278321
1.9258993414966270041,34.005452674174200922,0.0088966370063960700798
1.9341629647433025152,45.06295977836354183,0.010213524280632140656
2.0208448134751977321,8.035844673258498716,0.0087655802088433265595
2.1747124823132124583,5.8024164873799808362,0.0084068604185008489332
2.1975272502038096789,8.857670879683853471,0.0058514440739854131981
2.2401523101423679307,1245.5287893821453054,0.0060245740991083148591
2.2714417355111820029,60.579882610516960995,0.013065906951684165896
2.2943957921111892695,98.163955345819729814,0.011288150990408370167
2.3240645747266430732,75.256245891224452293,0.010287806753616240626
2.3313586593440138728,120.44970726506421954,0.011677305560431970599
2.3612055525962536429,98.993321022180964519,0.010303533707005102169
2.3926353525829164859,1196.2180359397073062,0.0067008949136566041405
2.409448595578293606,81.412668294348989662,0.022716227362193738837
2.4464936525381868471,173.54386940276106088,0.006886271221245828314
2.4602554509203589106,199.66076101118309793,0.008229905862747346687
2.4989652847235324096,33.235330471412432018,0.0090758452314968953573
2.5209642792072783912,34.201870611724608295,0.0087045052144733760929
2.5310765842661488989,38.222600583780113936,0.0092706443712958028908
2.5479457181687266143,33.490461432125080421,0.0081583204912638023626
2.5531409423648669943,46.519436936626391343,0.0089446805395843390074
2.5700634786849909652,32.648857892730909214,0.0088872153800587504885
2.580385874677164626,34.154550982084685984,0.0092953655137228332478
2.6029658758407498986,35.272725194923872039,0.011107794711588382663
3.5750169721608209272,199.82297861044654042,0.0064297430340439264487
3.5924993880332074525,217.10929962612055988,0.0073375912542091312543
3.7994931618494236503,134.21856949047736407,0.010283324138022889929
3.8226831772500529105,151.50432520264553204,0.011667382697670392391
4.1927178184912090586,110.24808549292895066,0.008995690213747018979
4.2206732935051816114,187.45422471621080263,0.011000579318882739571
4.2928150761098500254,178.9824063304572519,0.010737834515471939359
4.3209127674730831714,112.8955848247973961,0.011313359596359432585
4.3693199664455608655,26.411773016419825666,0.0082436271080997859662
4.3836828052247778231,36.230412036691014066,0.014607130347676378426
4.3915954953435170083,30.145447593665487318,0.0088030236393019673652
4.4056933403132028104,73.352033639884439253,0.0099146077872579729817
4.4196228746254773156,37.467760127606808851,0.010698877621571550173
4.4278957711365443117,31.3723079689743507,0.011335286326035556165
4.4418859109067261315,39.215545431747173666,0.012388587909384268793
4.7822561119235311722,100.5974845513196243,0.0058410741346807213553
4.7912621458140023378,107.47641215960931049,0.0065191857534531829146
4.799580505075815573,106.10503701568818258,0.006718263131999805543
4.8087862965656444914,113.14464269653066708,0.0069637664992477522202
4.9288848780200407163,60.021395118203741958,0.0093901859025255739188
4.9363598620199899969,92.690186397817853958,0.010860802015101572032
4.9609799427412140105,78.837413444168475962,0.010015322986111749662
4.9685347422370389481,76.489183221265435009,0.011425583198055370288
5.671130769753564671,149.47121275861135814,0.0093394718968529567144
5.6944921512619632864,156.38907189884284321,0.010661029708128565152
5.7783562122536560324,76.851812354765854707,0.008523194864886439806
5.7873976261159016943,85.697052050871192819,0.0097840053276401130894
5.8077159421255624139,81.025827862334509177,0.0090855430851873430348
5.8168430646517039762,94.167316911546961933,0.010380200417059247397
6.2119623277187336896,45.707206492052428359,0.015456275946578177174
6.2380962324601654245,58.546528051447182861,0.010358952321509002845
6.2440051803301965805,77.09329112133872286,0.012085482791477010489
6.2690695636498503518,33.918168919878382894,0.013494188608643875593
6.2851700262031222621,372.87886393586290978,0.008229905862747346687
6.9859239675979010187,126.15174208539366418,0.01057907653016339905
7.015094520900395203,122.60462897008019922,0.011373642987854221814
7.2689924751810046644,8.4443497454359857102,0.0045463937020321677773
7.3233849928059218115,2.96484113527248061,0.0026166202450042222623
7.3293330233805633611,27.650783225333345428,0.010034433804609724922
7.3418790161046176834,11.306694201401473521,0.004267853643475733906
7.3527741575073761737,119.17595760021752938,0.0067861220127727727575
7.3614114657965563637,27.093199878878571951,0.0054091671218642620525
7.3703387956950363602,69.260834495861431037,0.005207682645045228105
7.3751432851874607621,198.83891931925472818,0.0070477648720568657204
7.3808823747701808315,74.477830021624384926,0.0065020886087029305597
7.3982942016888388892,419.45701030700297451,0.0072755906738461448638
7.4033786175596576484,161.50391540071834129,0.0070082851880313348086
7.41793033925356049,50.404302571546111267,0.0038797478530601383837
7.4246312079637677428,551.25263878862506317,0.008824139785567199773
7.4396202070233963255,36.419097441352384692,0.0070381431791134742293
7.4471981068107018231,134.99845112671516745,0.0063306968174979593236
7.4517945125478259882,81.780589600415439122,0.0060101421838451817015
7.4746878686890632082,126.92950505773768555,0.0059496148767095476118
7.4786653431031586692,329.13405871845566253,0.0091413741835006476905
7.4847132565456240272,156.74088920722681451,0.01176418258405736994
7.4900339322500606443,65.307636210639373076,0.0051777798256659882462
7.4946667704043150593,51.507635419078759753,0.0049830457764360363074
7.5021955552225021435,270.98978733970511712,0.0079917198722526897742
7.5134245474468590587,336.24398551916976885,0.010450358378486682837
7.5187833972152704476,70.008278207591928322,0.0071529263224695324025
7.527169503583112764,21.71238633617099012,0.0048893782644039238822
7.5397991314027619225,236.82015916767764452,0.0095237285572705408787
7.5561315890501781212,9.9066237523687963318,0.022076625304289384383
7.5915266669958603174,30.127308327735821791,0.0044304929779200993498
7.5962092972168955285,100.75212724635723305,0.0063306968174979593236
7.6010606052505389485,50.306565749923315423,0.0061546135904546580078
7.6129869689638649533,23.571025965391189771,0.0047034417956512489245
7.6208093970752308621,156.14501938374814927,0.0073507009208592811317
7.6290890105469983951,26.984620387293904997,0.0062872706674337586197
7.6405832496416925537,17.607664049614285773,0.0063556919638504023873
7.6453473680437662452,42.07639235639886266,0.0073888109521031940241
7.6501511741992844762,15.499054358054504377,0.0060646984046216281805
7.7324632678179048284,146.28117234306884598,0.0054013255146295631459
7.7379510163541223022,273.333119168518067,0.0070651134858145418424
7.7450798258260284967,38.72789242809256649,0.0056951575237502854998
7.7555347576813913335,28.788243348134987087,0.0036726274551163329979
7.7622737658589002763,271.97706946531820904,0.011261514965265121552
7.7760308696286282171,13.761951036860621045,0.034717278900047957024
7.8763497380927578462,3.0432805468343695487,0.056879370111264010434
8.123827286743566134,155.00833542768052098,0.0053590266317686862177
8.1289797759745177075,252.40912976436905524,0.0063306968174979593236
8.1356552046914671905,53.072328588027971819,0.0085348937269780732195
8.1470704458514742186,49.924786166967415113,0.005100583116368503922
8.1522939273038392827,216.23290872783229588,0.00751801491199315889
8.1562889713393058599,121.78787989528031233,0.0064698356662621142252
8.1638718390641376033,28.420609440063344664,0.017140953400521869582
##$MNOVA/PEAK_DATA_TABLE=	(T,F,A,ST,SP,APT,APC)
$$ Complementary to PEAK TABLE
$$ T: Type
$$ F: Flags
$$ A: Annotation
$$ ST: Shape Type
$$ SP: Shape Parameter
$$ APT: Attached Peaks Type
$$ APC: Attached Peaks Count
Impurity,Artifact|Weak,,1,-0.20269575115731588988,0,0
Compound,Artifact|Impurity|Weak|13C Sat.,,1,0.019208428032761518806,0,0
Compound,None,,1,0.015938606702026760636,0,0
Compound,None,,1,0.27692561258783054967,0,0
Compound,None,,1,0.15806844051801788309,0,0
Compound,None,,1,-1,0,0
Impurity,None,,1,0.35026052197427953727,0,0
Compound,Artifact|Impurity|Weak|13C Sat.,,1,-0.82176267096087829422,0,0
Solvent,Artifact|Weak,,1,0,0,0
Compound,None,,1,0.39001193867268951765,0,0
Compound,None,,1,0.55450525566801678323,0,0
Compound,None,,1,-0.044637890995131074279,0,0
Compound,None,,1,1.9043284480317712593,0,0
Compound,None,,1,0.88971442784668430814,0,0
Compound,None,,1,-0.31076877176573175499,0,0
Compound,None,,1,-0.007134468201806749843,0,0
Compound,None,,1,-0.14678369122252105106,0,0
Compound,Artifact|Weak,,1,0.99659990165192646749,0,0
Compound,None,,1,0.25459753728701317588,0,0
Compound,None,,1,0.42248389896297422474,0,0
Compound,None,,1,0.066942182268282163227,0,0
Compound,None,,1,-1,0,0
Compound,None,,1,-0.17555242762589326477,0,0
Compound,None,,1,-0.27159117710845293026,0,0
Impurity,None,,1,-0.11650591068816185114,0,0
Impurity,Artifact|Weak,,1,0.1442398594677878898,0,0
Impurity,None,,1,0.49609250465177839873,0,0
Compound,None,,1,0.64153313213262341819,0,0
Compound,None,,1,0.79163131028720779003,0,0
Compound,None,,1,0.21310999125680518684,0,0
Compound,None,,1,0.23365376364878309712,0,0
Compound,None,,1,-0.10813905841076514036,0,0
Compound,None,,1,0.00031366144443689772956,0,0
Compound,None,,1,0.077984396679524364826,0,0
Compound,None,,1,1.9010048748963339627,0,0
Compound,None,,1,0.6984480866820764744,0,0
Compound,None,,1,-0.12637352012027755488,0,0
Compound,None,,1,0.15300386863693021811,0,0
Compound,None,,1,0.18894851308589991068,0,0
Compound,None,,1,-0.059679903630510462709,0,0
Compound,None,,1,0.066621003167993700367,0,0
Compound,None,,1,0.045119529956326967501,0,0
Compound,None,,1,0.18009254310732991655,0,0
Compound,None,,1,0.049996077186996154551,0,0
Compound,None,,1,0.083085185395948432663,0,0
Compound,None,,1,0.9206903511754276348,0,0
Compound,None,,1,-0.19585600440927120047,0,0
Compound,2ry Solvent,,1,1.0944697029790844134,0,0
Compound,2ry Solvent,,1,0.011408236386493273568,0,0
Compound,None,,1,0.72317880728686401159,0,0
Compound,None,,1,0.33513623785822704848,0,0
Compound,None,,1,0.42815007577766234226,0,0
Compound,None,,1,0.050206175516101694822,0,0
Compound,None,,1,0.8056429953649651976,0,0
Compound,None,,1,-0.7217523710007965887,0,0
Compound,None,,1,0.24579374323540761904,0,0
Compound,None,,1,0.06175344262525569311,0,0
Compound,None,,1,-0.049521481890311837282,0,0
Compound,None,,1,-0.067004780900932009446,0,0
Compound,None,,1,-0.56433569434458286107,0,0
Compound,None,,1,0,0,0
Compound,None,,1,0.065783605476976564352,0,0
Compound,None,,1,-0.015310784249491098813,0,0
Compound,None,,1,0,0,0
Compound,None,,1,0.91821040574731860318,0,0
Compound,None,,1,0.04863610553609998971,0,0
Compound,None,,1,0.27154615421058775349,0,0
Compound,None,,1,0.020337343165288936098,0,0
Compound,None,,1,0.57803543207547758431,0,0
Compound,None,,1,-0.19220482134240299277,0,0
Compound,None,,1,0,0,0
Compound,None,,1,0.18451869670419523972,0,0
Compound,None,,1,0,0,0
Compound,None,,1,-0.27121246907018414785,0,0
Compound,None,,1,1.5384873220022707851,0,0
Compound,None,,1,-0.19566952921742924998,0,0
Compound,None,,1,-0.32874682316682340977,0,0
Compound,None,,1,0.4029675246759508167,0,0
Compound,None,,1,-0.1894079378286323001,0,0
Compound,None,,1,0,0,0
Compound,None,,1,0,0,0
Impurity,None,,1,0.078180487415617491709,0,0
Compound,Artifact|Weak,,1,1.999999999999999778,0,0
Compound,None,,1,0.35612444400997828042,0,0
Compound,None,,1,0,0,0
Compound,None,,1,0.10999406711370190992,0,0
Compound,None,,1,0.48813676940598993426,0,0
Compound,None,,1,-0.076308179629489270024,0,0
Compound,None,,1,-0.11621819765588448092,0,0
Compound,None,,1,0.003639192596881341956,0,0
Compound,None,,1,0.04355318072328884238,0,0
Compound,None,,1,0.17451405802292752067,0,0
Compound,None,,1,0.7651987960328933136,0,0
Compound,None,,1,-0.35153088076990801625,0,0
Compound,None,,1,-0.85178096643525869069,0,0
Compound,None,,1,-0.1325147188188625369,0,0
Compound,None,,1,0.24647084290865262091,0,0
Compound,None,,1,1.0897402814299004259,0,0
Compound,None,,1,0.12947384486595017727,0,0
Compound,None,,1,-0.57127509969457712646,0,0
Compound,None,,1,-0.11172262906485355693,0,0
Compound,None,,1,0.22729551978299589177,0,0
Compound,None,,1,-0.21038246678287361724,0,0
Compound,None,,1,-0.48709268640222730395,0,0
Compound,None,,1,-0.40694975217052858918,0,0
Compound,None,,1,-0.27367572573915338596,0,0
Compound,None,,1,-0.085650724213167897525,0,0
Compound,None,,1,-0.83885877612237047529,0,0
Compound,None,,1,0.57193356132962702709,0,0
Compound,None,,1,0.034424531645856890072,0,0
Compound,None,,1,-0.24615393982858366217,0,0
Compound,None,,1,-0.13378319331031265915,0,0
Compound,None,,1,0.021096764259250565948,0,0
Compound,None,,1,-0.084619534267290186236,0,0
Compound,None,,1,-0.8332730521823668024,0,0
Compound,None,,1,-0.41488973656485034214,0,0
Compound,None,,1,-0.82937673363310882024,0,0
Compound,None,,1,0.28214575786306839156,0,0
Compound,None,,1,-0.05686345753406232828,0,0
Compound,None,,1,0.3502810410613024783,0,0
Compound,None,,1,0.60810715020388006469,0,0
Compound,None,,1,0.31852835988947303392,0,0
Compound,None,,1,0.7594657205345487494,0,0
Impurity,None,,1,-1,0,0
Compound,None,,1,0.098104955649226888159,0,0
Compound,None,,1,0.16560896205419253779,0,0
Compound,None,,1,-0.13812885998205409743,0,0
Compound,None,,1,0.37286014324507527062,0,0
Compound,None,,1,0.078451493507717851017,0,0
Compound,None,,1,-0.032435842548445455169,0,0
Compound,None,,1,-1,0,0
##END=	
##END=	
##END=	
